LAMMPS (30 Jul 2021)
units           lj
dimension       3
boundary        f f f
atom_style      bond
special_bonds   lj 0.0 1.0 1.0 coul 0.0 1.0 1.0
newton          on off
comm_modify     vel yes cutoff 2.6
lattice         fcc 1.0
Lattice spacing in x,y,z = 1.5874011 1.5874011 1.5874011
region          box block -25 15 -22 22 -22 22
create_box      1 box bond/types 2 extra/bond/per/atom 20 extra/special/per/atom 50
Created orthogonal box = (-39.685026 -34.922823 -34.922823) to (23.811016 34.922823 34.922823)
  1 by 1 by 1 MPI processor grid

region          disk cylinder x 0.0 0.0 20.0 -0.5 0.5
create_atoms    1 region disk
Created 7529 atoms
  using lattice units in orthogonal box = (-39.685026 -34.922823 -34.922823) to (23.811016 34.922823 34.922823)
  create_atoms CPU = 0.003 seconds
group           plate region disk
7529 atoms in group plate

region          ball sphere 8.0 0.0 0.0 6.0
create_atoms    1 region ball
Created 3589 atoms
  using lattice units in orthogonal box = (-39.685026 -34.922823 -34.922823) to (23.811016 34.922823 34.922823)
  create_atoms CPU = 0.002 seconds
group           projectile region ball
3589 atoms in group projectile

displace_atoms  all random 0.1 0.1 0.1 134598738
Displacing atoms ...

mass            1 1.0

neighbor        1.0 bin
pair_style      lj/cut 1.0
bond_style      bpm/spring store/local 2 time id1 id2
pair_coeff      1 1 $(1/(18*PI)) $(2^(-1/6)) 1.0
pair_coeff      1 1 0.017683882565766150669 $(2^(-1/6)) 1.0
pair_coeff      1 1 0.017683882565766150669 0.89089871814033927411 1.0
bond_coeff      1 1.0 0.04 1.0
bond_coeff      2 1.0 0.20 1.0

fix             1 all nve
fix             2 all store/local 100 3
fix             3 all update/special/bonds

create_bonds    many plate plate 1 0.0 1.5
Neighbor list info ...
  update every 1 steps, delay 10 steps, check yes
  max neighbors/atom: 2000, page size: 100000
  master list distance cutoff = 2
  ghost atom cutoff = 2.6
  binsize = 1, bins = 64 70 70
  2 neighbor lists, perpetual/occasional/extra = 1 1 0
  (1) command create_bonds, occasional
      attributes: full, newton on
      pair build: full/bin
      stencil: full/bin/3d
      bin: standard
  (2) pair lj/cut, perpetual
      attributes: half, newton on
      pair build: half/bin/newton
      stencil: half/bin/3d
      bin: standard
Added 38559 bonds, new total = 38559
Finding 1-2 1-3 1-4 neighbors ...
  special bond factors lj:    0        1        1       
  special bond factors coul:  0        1        1       
    15 = max # of 1-2 neighbors
   101 = max # of special neighbors
  special bonds CPU = 0.006 seconds
create_bonds    many projectile projectile 2 0.0 1.5
WARNING: Communication cutoff 2.6 is shorter than a bond length based estimate of 2.799982026012842. This may lead to errors. (../comm.cpp:734)
Added 21869 bonds, new total = 60428
Finding 1-2 1-3 1-4 neighbors ...
  special bond factors lj:    0        1        1       
  special bond factors coul:  0        1        1       
    16 = max # of 1-2 neighbors
   101 = max # of special neighbors
  special bonds CPU = 0.008 seconds

neighbor        0.3 bin
special_bonds   lj 0.0 1.0 1.0 coul 1.0 1.0 1.0

velocity        projectile set -0.05 0.0 0.0
compute         nbond all nbond/atom
compute         tbond all reduce sum c_nbond

timestep        0.1
thermo_style    custom step ke pe pxx pyy pzz c_tbond
thermo          100
thermo_modify   lost ignore lost/bond ignore
#dump            1 all custom 100 atomDump id x y z c_nbond

dump            2 all local 100 brokenDump f_2[1] f_2[2] f_2[3]
dump_modify     2 header no

run             7500
Neighbor list info ...
  update every 1 steps, delay 10 steps, check yes
  max neighbors/atom: 2000, page size: 100000
  master list distance cutoff = 1.3
  ghost atom cutoff = 2.6
  binsize = 0.65, bins = 98 108 108
  1 neighbor lists, perpetual/occasional/extra = 1 0 0
  (1) pair lj/cut, perpetual
      attributes: half, newton on
      pair build: half/bin/newton
      stencil: half/bin/3d
      bin: standard
Per MPI rank memory allocation (min/avg/max) = 22.50 | 22.50 | 22.50 Mbytes
Step KinEng PotEng Pxx Pyy Pzz c_tbond 
       0 0.0010167873            0 7.298968e-05            0            0      10.8703 
     100 0.0010167873            0 7.298968e-05 -8.7429897e-20 -8.8470837e-20      10.8703 
     200 0.0010167873            0 7.298968e-05 -7.2809565e-20 -8.0915788e-20      10.8703 
     300 0.0010019973 -5.3291343e-05 0.00010093361 8.6373038e-06 9.8886169e-06    10.862565 
     400 0.00096754254 -0.00013445443 0.00012114639 -1.0451037e-05 -1.3102312e-05    10.814535 
     500 0.00098230681 -0.0001559819 8.1573507e-05 1.0019714e-05 6.6044989e-06    10.765785 
     600 0.00099346016 -0.00021242987 7.8181991e-05 5.3246616e-06 6.7747639e-06    10.711999 
     700 0.00097743083 -0.00022519088 9.2593451e-05 -1.3368324e-05 -9.1024741e-06    10.683037 
     800 0.00097657062 -0.00025160598 7.6171833e-05 -3.6699488e-06 -3.156595e-06    10.648858 
     900 0.00096573642 -0.00030010781 7.221088e-05 2.7980135e-06 8.3953748e-06    10.602806 
    1000 0.00088967922 -0.00026225991 7.2273749e-05 -3.3180725e-06 1.7000133e-06    10.571429 
    1100 0.00086637472 -0.00028264644 6.1827699e-05 -2.5263518e-06 -8.804488e-07    10.550198 
    1200 0.00084322002 -0.00030067163 5.3193544e-05 -5.4186506e-06 -7.4414952e-07    10.528787 
    1300 0.00082546285 -0.00029621074 5.8387607e-05 -5.4986846e-07 2.1039469e-06    10.507017 
    1400 0.0008157657 -0.00031617563 5.8009972e-05 7.3256966e-06 4.560414e-06    10.481288 
    1500 0.00083393604 -0.00030638038 5.2255981e-05 1.4804765e-05 9.4914663e-06    10.451961 
    1600 0.00081285118 -0.00035496629 5.312358e-05 1.4502252e-05 1.3433953e-05    10.426849 
    1700 0.00078740406 -0.00034224637 5.0152957e-05 1.0822543e-05 1.1601587e-05    10.406767 
    1800 0.00076088167 -0.00039346684 5.0685628e-05 1.4591838e-05 6.8909935e-06    10.396831 
    1900 0.00073852613 -0.00040295897 4.9940437e-05 2.2598772e-06 -1.0055633e-05    10.381741 
    2000 0.00071844253 -0.00038465525 4.9242922e-05 -2.3157129e-05 -1.7381528e-05     10.36989 
    2100 0.00070212224 -0.00039396945 4.380536e-05 -3.3139297e-05 -2.5812742e-05    10.359806 
    2200 0.00068509947 -0.00038059464 4.1430464e-05 -2.8642858e-05 -3.0274798e-05    10.348131 
    2300 0.00066204726 -0.00037290268 4.0755035e-05 -2.4099531e-05 -2.31417e-05    10.341529 
    2400 0.00066390231 -0.00040132712 3.7909178e-05 -1.1313567e-05 -4.0596624e-06    10.325887 
    2500 0.00067466471 -0.00036822838 3.3769672e-05 8.9955187e-06 7.2249524e-06    10.307692 
    2600 0.00063522312 -0.00040169247 3.3473414e-05 1.7842262e-05 1.8667217e-05    10.294388 
    2700 0.00071914116 -0.00044796394 4.069137e-05 2.9483289e-05 4.2250507e-05    10.234934 
    2800 0.00070369013 -0.00044931969 3.1275752e-05 2.9033491e-05 3.9770684e-05    10.200721 
    2900 0.00070512114 -0.00042845959 3.0186471e-05 2.5771984e-05 2.4348678e-05    10.177838 
    3000 0.00069482317 -0.00044283829 3.3405984e-05 2.3415957e-05 2.2902999e-05    10.142896 
    3100 0.00066723285 -0.00047945243 3.209325e-05 1.0654925e-05 2.0497587e-05    10.122195 
    3200 0.00064836823 -0.00051480546 3.036046e-05 3.5029031e-06 1.1456758e-05    10.099135 
    3300 0.00062844846 -0.0005036651 2.8409131e-05 -9.8098376e-06 -4.684996e-06    10.090311 
    3400 0.00060808824 -0.00051335015 2.8585528e-05 -1.299304e-05 -1.042155e-05    10.085279 
    3500 0.00060141771 -0.00053944948 3.3073003e-05 -1.4007198e-05 -1.4890004e-05    10.076632 
    3600 0.00058955439 -0.00058831267 3.3193604e-05 -1.4717218e-05 -2.0169028e-05    10.067983 
    3700 0.00057562588 -0.00053594395 3.1855934e-05 -1.2759241e-05 -1.778831e-05     10.06007 
    3800 0.00056288488 -0.0005584841 3.0312862e-05 -9.7942798e-06 -1.5748733e-05    10.058818 
    3900 0.0005587151 -0.00057123887 3.0257207e-05 -7.8343432e-06 -1.1945945e-05    10.056117 
    4000 0.00055252357 -0.00056341012 3.0643644e-05 -3.5123196e-06 -7.6221264e-06    10.055766 
    4100 0.00054746835 -0.0006001176 3.0871838e-05 3.1185521e-06 -2.7579162e-06    10.053254 
    4200 0.00055406659 -0.00058858425 3.4129718e-05 1.0050578e-05 5.7346642e-06    10.040079 
    4300 0.00055197755 -0.00060160199 3.2641549e-05 1.5817736e-05 9.4864214e-06    10.035028 
    4400 0.00054566896 -0.00064016609 3.3944385e-05 2.157204e-05 6.1187523e-06    10.036121 
    4500 0.00054060111 -0.00065952834 3.3119093e-05 2.4172484e-05 4.9459325e-06     10.03685 
    4600 0.00054065729 -0.00066744113 3.223805e-05 2.3503537e-05 9.0427401e-06    10.035405 
    4700 0.00054098427 -0.00064504776 3.2037001e-05 1.926565e-05 1.0546415e-05    10.034501 
    4800 0.00054141253 -0.00068174982 3.1935667e-05 1.2727978e-05 8.8624733e-06    10.033418 
    4900 0.00054027919 -0.00064378606 3.1759404e-05 7.3709768e-06 8.0812107e-06    10.035601 
    5000 0.00053821803 -0.00064717177 3.1834908e-05 5.5119444e-06 5.2280812e-06    10.036692 
    5100 0.00053536579 -0.00066007859 3.2403937e-05 4.0857527e-06 -1.5295741e-07    10.037419 
    5200 0.00053648695 -0.00063942795 3.2383043e-05 1.6197156e-07 -4.7369656e-06    10.038326 
    5300 0.00053622807 -0.00064591007 3.329864e-05 -1.7924131e-06 -6.7951652e-06    10.039233 
    5400 0.00053960407 -0.0006173041 3.3993069e-05 -1.7932927e-06 -6.0531078e-06     10.03779 
    5500 0.00053796949 -0.00063172209 3.4211179e-05 -3.0279549e-06 -6.3779479e-06    10.036344 
    5600 0.00053754609 -0.00065574707 3.4750932e-05 -5.5906378e-06 -8.8682325e-06     10.03689 
    5700 0.00053800964 -0.00067017804 3.4577555e-05 -8.2489481e-06 -1.0448862e-05    10.036528 
    5800 0.00053783078 -0.00062551374 3.516311e-05 -9.7501091e-06 -1.0484624e-05    10.037074 
    5900 0.00053771802 -0.00063683303 3.536403e-05 -1.0978806e-05 -1.1331075e-05    10.038889 
    6000 0.00053818926 -0.0006480219 3.556216e-05 -1.1313579e-05 -1.2936664e-05    10.038889 
    6100 0.00053847422 -0.0006368473 3.5618731e-05 -9.846739e-06 -1.2685058e-05    10.038709 
    6200 0.00053845201 -0.00063840856 3.5837807e-05 -7.1875428e-06 -1.1762856e-05    10.038709 
    6300 0.00053667612 -0.00066242577 3.6073709e-05 -4.7480116e-06 -1.1847933e-05    10.039616 
    6400 0.00053622069 -0.00068157063 3.6102907e-05 -2.6083138e-06 -1.0659141e-05    10.039616 
    6500 0.00053523267 -0.00069280776 3.6305856e-05 6.3043373e-07 -7.1642325e-06    10.041433 
    6600 0.0005330839 -0.00066567528 3.6114434e-05 3.5272096e-06 -2.960556e-06    10.042888 
    6700 0.00053197306 -0.00066248792 3.6043626e-05 5.2775896e-06 2.4477165e-07    10.043254 
    6800 0.00053144495 -0.00069604723 3.6046963e-05 6.4421403e-06 5.1877078e-07    10.040901 
    6900 0.00053079408 -0.00068001276 3.5639415e-05 7.9689078e-06 -4.083361e-07    10.040177 
    7000 0.00053012176 -0.00068635527 3.5599595e-05 8.9040006e-06 -4.4296434e-07    10.039996 
    7100 0.00052958544 -0.00067840066 3.5846725e-05 8.6942859e-06 2.6834024e-06    10.040543 
    7200 0.00052858813 -0.00068968438 3.5554886e-05 6.0568352e-06 4.7776634e-06    10.041271 
    7300 0.00052845993 -0.00070888583 3.5468591e-05 1.4110758e-06 5.6592858e-06    10.040909 
    7400 0.00052678004 -0.00072652527 3.5417511e-05 -2.0145276e-06 6.3632678e-06    10.041818 
    7500 0.00052676205 -0.00072008847 3.5601092e-05 -4.5673532e-06 7.3467401e-06    10.041455 
Loop time of 17.1712 on 1 procs for 7500 steps with 11048 atoms

Performance: 3773764.428 tau/day, 436.778 timesteps/s
99.5% CPU use with 1 MPI tasks x no OpenMP threads

MPI task timing breakdown:
Section |  min time  |  avg time  |  max time  |%varavg| %total
---------------------------------------------------------------
Pair    | 2.3271     | 2.3271     | 2.3271     |   0.0 | 13.55
Bond    | 5.8378     | 5.8378     | 5.8378     |   0.0 | 34.00
Neigh   | 4.42       | 4.42       | 4.42       |   0.0 | 25.74
Comm    | 0.07213    | 0.07213    | 0.07213    |   0.0 |  0.42
Output  | 0.064105   | 0.064105   | 0.064105   |   0.0 |  0.37
Modify  | 4.3202     | 4.3202     | 4.3202     |   0.0 | 25.16
Other   |            | 0.1298     |            |       |  0.76

Nlocal:        11048.0 ave       11048 max       11048 min
Histogram: 1 0 0 0 0 0 0 0 0 0
Nghost:         0.00000 ave           0 max           0 min
Histogram: 1 0 0 0 0 0 0 0 0 0
Neighs:        46555.0 ave       46555 max       46555 min
Histogram: 1 0 0 0 0 0 0 0 0 0

Total # of neighbors = 46555
Ave neighs/atom = 4.2138849
Ave special neighs/atom = 10.041455
Neighbor list builds = 732
Dangerous builds = 710
Total wall time: 0:00:17
