LAMMPS (30 Jul 2021)
units           lj
dimension       3
boundary        m m m
atom_style      sphere/bpm
special_bonds   lj 0.0 1.0 1.0 coul 0.0 1.0 1.0
newton          on off
comm_modify     vel yes cutoff 2.6
lattice         fcc 1.0
Lattice spacing in x,y,z = 1.5874011 1.5874011 1.5874011
region          box block -5 15 -20 20 -20 20
create_box      1 box bond/types 2 extra/bond/per/atom 20 extra/special/per/atom 50
Created orthogonal box = (-7.9370053 -31.748021 -31.748021) to (23.811016 31.748021 31.748021)
  1 by 2 by 2 MPI processor grid

region          disk cylinder x 0.0 0.0 20.0 -0.5 0.5
create_atoms    1 region disk
Created 7527 atoms
  using lattice units in orthogonal box = (-7.9370053 -31.748021 -31.748021) to (23.811016 31.748021 31.748021)
  create_atoms CPU = 0.002 seconds
group           plate region disk
7527 atoms in group plate

region          ball sphere 8.0 0.0 0.0 6.0
create_atoms    1 region ball
Created 3589 atoms
  using lattice units in orthogonal box = (-7.9370053 -31.748021 -31.748021) to (23.811016 31.748021 31.748021)
  create_atoms CPU = 0.001 seconds
group           projectile region ball
3589 atoms in group projectile

displace_atoms  all random 0.1 0.1 0.1 134598738
Displacing atoms ...

neighbor        1.0 bin
pair_style      gran/hooke/history 1.0 NULL 0.5 NULL 0.1 1
bond_style      bpm/rotational store/local 2 time id1 id2
pair_coeff      1 1
bond_coeff      1 1.0 0.2 0.02 0.02 0.05 0.01 0.01 0.01 0.1 0.02 0.002 0.002
bond_coeff      2 1.0 0.2 0.02 0.02 0.20 0.04 0.04 0.04 0.1 0.02 0.002 0.002

fix             1 all nve/sphere/bpm
fix             2 all store/local 100 3
fix             3 all update/special/bonds

create_bonds    many plate plate 1 0.0 1.5
Neighbor list info ...
  update every 1 steps, delay 10 steps, check yes
  max neighbors/atom: 2000, page size: 100000
  master list distance cutoff = 2
  ghost atom cutoff = 2.6
  binsize = 1, bins = 32 64 64
  2 neighbor lists, perpetual/occasional/extra = 1 1 0
  (1) command create_bonds, occasional
      attributes: full, newton on
      pair build: full/bin
      stencil: full/bin/3d
      bin: standard
  (2) pair gran/hooke/history, perpetual
      attributes: half, newton on, size, history
      pair build: half/size/bin/newton
      stencil: half/bin/3d
      bin: standard
Added 38551 bonds, new total = 38551
Finding 1-2 1-3 1-4 neighbors ...
  special bond factors lj:    0        1        1       
  special bond factors coul:  0        1        1       
    15 = max # of 1-2 neighbors
   101 = max # of special neighbors
  special bonds CPU = 0.002 seconds
create_bonds    many projectile projectile 2 0.0 1.5
Added 21869 bonds, new total = 60420
Finding 1-2 1-3 1-4 neighbors ...
  special bond factors lj:    0        1        1       
  special bond factors coul:  0        1        1       
    16 = max # of 1-2 neighbors
   101 = max # of special neighbors
  special bonds CPU = 0.002 seconds
change_box      all boundary s s s
Changing box ...

neighbor        0.3 bin
special_bonds   lj 0.0 1.0 1.0 coul 1.0 1.0 1.0

velocity        projectile set -0.05 0.0 0.0
compute         nbond all nbond/atom
compute         tbond all reduce sum c_nbond

timestep        0.05
thermo_style    custom step ke pe pxx pyy pzz c_tbond
thermo          100
dump            1 all custom 100 atomDump id radius x y z c_nbond

dump            2 all local 100 brokenDump f_2[1] f_2[2] f_2[3]
dump_modify     2 header no

run             10000
Neighbor list info ...
  update every 1 steps, delay 10 steps, check yes
  max neighbors/atom: 2000, page size: 100000
  master list distance cutoff = 1.3
  ghost atom cutoff = 2.6
  binsize = 0.65, bins = 36 97 97
  1 neighbor lists, perpetual/occasional/extra = 1 0 0
  (1) pair gran/hooke/history, perpetual
      attributes: half, newton on, size, history
      pair build: half/size/bin/newton
      stencil: half/bin/3d
      bin: standard
Per MPI rank memory allocation (min/avg/max) = 34.27 | 34.28 | 34.28 Mbytes
Step KinEng PotEng Pxx Pyy Pzz c_tbond 
       0 0.00053248439   -5.4354084 0.00012848545 -1.0639387e-19 1.5819554e-19    10.870817 
     100 0.00053248439   -5.4354084 0.00013017373 1.1334839e-12 1.784281e-12    10.870817 
     200 0.00053248439   -5.4354084 0.00013279102 1.6787387e-12 5.4953548e-13    10.870817 
     300 0.00053248439   -5.4354084 0.00013459514 3.0577302e-12 -1.2088316e-12    10.870817 
     400 0.00053248439   -5.4354084 0.00013739515 9.7326931e-13 1.1562543e-12    10.870817 
     500 0.00053111833   -5.4353812 0.00013532154 -1.8602155e-06 -1.6702711e-06    10.870817 
     600 0.00051558884   -5.4335908 5.8899364e-05 -2.4651157e-05 -2.6584555e-05    10.868838 
     700 0.0005013055   -5.4216397 -7.255462e-05 -2.8970044e-05 -4.1925574e-05    10.850846 
     800 0.00049878634   -5.3947446 5.6196335e-05 1.8649508e-05 8.9976433e-06    10.803706 
     900 0.00049589843   -5.3619596 0.00020821095 -7.7726675e-05 -8.6749853e-05    10.737855 
    1000 0.00049487709   -5.3376233 0.00017638288 -2.8676423e-05 -4.5487748e-05    10.683879 
    1100 0.00048720924   -5.3283688 4.0171402e-05 0.0001406456   0.00014483    10.662648 
    1200 0.00048274004   -5.3195134 7.4824656e-06 7.4411513e-05 0.00010365246    10.643397 
    1300 0.00047990668   -5.3127593 0.00018114159 -2.9205108e-05 1.1366149e-05    10.629723 
    1400 0.00048034109   -5.3084824  0.000147425 -6.2432251e-05 -3.8277687e-05    10.620187 
    1500 0.00047225373   -5.3024141 8.6252599e-07 2.4082822e-05 3.049023e-05    10.608492 
    1600 0.00045698513   -5.2972292 1.0763242e-05 4.1148987e-05  2.83019e-05    10.599676 
    1700 0.00044854655   -5.2896066 0.00010217014 -6.9430229e-05 -9.6661607e-05    10.587262 
    1800 0.00044929529   -5.2775304 0.00010981512 -8.0553726e-05 -0.00011931185    10.562972 
    1900 0.00044441992   -5.2650251 1.8882842e-05 1.0491309e-05 -3.879472e-05    10.540842 
    2000 0.00043947002   -5.2484561 4.4869915e-05 6.8824059e-05 3.5808833e-05    10.511155 
    2100 0.00043372382   -5.2265524 0.00013970367 1.6484426e-05 2.2785645e-05    10.469054 
    2200 0.00043174768   -5.2069377 9.4662371e-05 2.2278647e-06 3.5962708e-05    10.427852 
    2300 0.0004270123   -5.1924656 2.3188212e-05 6.1522399e-06 7.4262622e-05    10.396006 
    2400 0.00042569191   -5.1848751 5.7811979e-05 2.7124197e-05 0.0001072424    10.378733 
    2500 0.00042259717   -5.1758217 0.00013069307 3.3656662e-05 0.00010197635    10.359482 
    2600 0.00042271375   -5.1700793 9.5183077e-05 5.3232578e-05 8.9912385e-05    10.347787 
    2700 0.00042252395   -5.1628759 2.6305437e-05 6.7644983e-05 7.7095778e-05    10.332674 
    2800 0.00042123755   -5.1549973 6.5875753e-05 2.8392569e-05 2.8079356e-05    10.315941 
    2900 0.00042132346   -5.1508594 0.00011264272 6.3410829e-06 -2.1983564e-05    10.306405 
    3000 0.00042343054   -5.1495182 7.3503612e-05 3.8773748e-05 -9.519275e-06    10.301547 
    3100 0.00042220412   -5.1483831 2.5233575e-05 5.0076476e-05 3.938746e-06    10.299568 
    3200 0.00042303815   -5.1466902 6.1939664e-05 -9.1346169e-06 -2.5920911e-05     10.29651 
    3300 0.00042000178    -5.144782 9.8814555e-05 -4.04749e-05 -4.2876825e-05    10.292371 
    3400 0.00041874209   -5.1416065 5.1246647e-05 -2.7877246e-05 -3.225052e-05    10.286254 
    3500 0.00041582277   -5.1397016 2.0053694e-05 -3.5797833e-05 -1.536015e-05    10.282296 
    3600 0.00041607097    -5.139236 6.0675623e-05 -5.7232123e-05 -3.1162791e-05    10.281036 
    3700 0.00041445536   -5.1373913 8.7909083e-05 -4.1136114e-05 -5.2627526e-05    10.277978 
    3800 0.0004147342   -5.1323122 4.6324048e-05 7.0253754e-06 -3.3511914e-05    10.268442 
    3900 0.00041446917   -5.1294358 2.8646507e-05 1.5201733e-05 -1.13759e-05    10.262504 
    4000 0.00041346205   -5.1250314 6.540586e-05 -1.17595e-05 -2.8050171e-05    10.254948 
    4100 0.00041230785   -5.1219436 7.9364924e-05 -4.1504333e-06 -2.2530525e-05    10.248111 
    4200 0.00041198555   -5.1177883 4.3515184e-05 1.5227343e-05 -6.3707934e-06    10.240014 
    4300 0.0004111489   -5.1134893 2.8350236e-05 2.0718016e-06 1.2010375e-05    10.231558 
    4400 0.00041090623   -5.1104369 6.2460747e-05 -2.5959985e-05 7.8242641e-07    10.224901 
    4500 0.00040944466   -5.1085221 6.7135567e-05 -1.7699087e-05 -4.7022089e-06    10.220943 
    4600 0.00040810594   -5.1065034 3.5212952e-05 1.3568365e-05 1.3875486e-05    10.217704 
    4700 0.00040810646   -5.1039941 3.3409499e-05 1.7215022e-05 2.8204859e-05    10.212487 
    4800 0.0004074837   -5.1015741 5.5792503e-05 1.9563116e-06 1.823506e-06    10.207089 
    4900 0.00040677077   -5.0987121 5.6695901e-05 8.2729584e-06 -1.2713008e-05    10.201871 
    5000 0.00040636045   -5.0961728 3.0704198e-05 2.2141861e-05 8.2099332e-06    10.196474 
    5100 0.00040606831   -5.0947673 3.1281394e-05 7.0864149e-06 2.0262936e-05    10.193055 
    5200 0.00040652265   -5.0940213 5.2610835e-05 -1.2888854e-05 3.0894446e-06    10.191076 
    5300 0.00040642029   -5.0931407 4.6148958e-05 -9.5544284e-06 -6.047443e-06    10.189457 
    5400 0.00040642806   -5.0915733  2.59528e-05 -3.3035524e-06 1.026995e-05    10.186038 
    5500 0.00040686546      -5.0908 2.9026708e-05 -9.0382082e-06 1.4643294e-05    10.184059 
    5600 0.0004064361   -5.0908057 4.6731327e-05 -1.2664731e-05 -2.6232887e-06    10.183339 
    5700 0.00040629203   -5.0903044 4.0856223e-05 -1.2201759e-06 -1.3169401e-05     10.18262 
    5800 0.00040637688   -5.0890571 2.2625249e-05 8.7645385e-06 -6.2486963e-06    10.180281 
    5900 0.00040613721   -5.0874767 2.8382883e-05 2.4072343e-06 2.0419388e-07    10.176862 
    6000 0.00040668084   -5.0865465 4.3602089e-05 -5.4962058e-06 -4.5087421e-06    10.174523 
    6100 0.00040707325   -5.0865389 3.4958823e-05 -2.0750124e-06 -1.6708517e-06    10.174343 
    6200 0.00040691768   -5.0863974 2.1602821e-05 3.1566836e-06 1.0526645e-05    10.174343 
    6300 0.00040705673   -5.0862887 2.9412395e-05 9.2283412e-07 1.4273225e-05    10.173983 
    6400 0.00040648035   -5.0860509 3.9684464e-05 -1.663237e-06 3.9771927e-06    10.173624 
    6500 0.00040710623   -5.0861041 3.1078617e-05 1.732822e-06 3.4003409e-06    10.173624 
    6600 0.00040665879   -5.0857907 2.0693771e-05 3.3053846e-06 1.2181329e-05    10.173264 
    6700 0.00040650151   -5.0854203 2.8479998e-05 2.7244033e-06 9.7566436e-06    10.172364 
    6800 0.00040635649   -5.0851816 3.5150661e-05 1.6906684e-06 -6.155957e-06    10.171644 
    6900 0.00040670804   -5.0848974 2.4632227e-05 2.9367001e-06 -1.0691056e-05    10.171105 
    7000 0.00040693354   -5.0843039 1.8740741e-05 6.024808e-06 4.2065619e-07    10.169665 
    7100 0.00040728228   -5.0843393 2.7137965e-05 5.5506702e-06 5.5908974e-06    10.169665 
    7200 0.0004074084   -5.0842875 3.0307934e-05 2.0170793e-06 -2.4296651e-06    10.169485 
    7300 0.00040723509   -5.0843468 2.1465618e-05 1.9642493e-06 -3.6022271e-06    10.169485 
    7400 0.00040756027   -5.0843623 1.6801323e-05 -1.9748948e-06 1.4205345e-06    10.169306 
    7500 0.00040829979   -5.0843202 2.4772881e-05 -6.1251363e-06 2.0247483e-06    10.169126 
    7600 0.00040822994   -5.0843182 2.7272667e-05 -3.0357928e-06 4.894101e-07    10.169126 
    7700 0.00040831723   -5.0843052 1.9410405e-05 3.6094291e-06 1.5451381e-06    10.169126 
    7800 0.00040868149   -5.0843706 1.6484224e-05 3.3901782e-06 3.9911363e-06    10.169126 
    7900 0.00040872521   -5.0843735 2.2844838e-05 2.8813595e-06 1.4869802e-06    10.169126 
    8000 0.00040853749   -5.0843239 2.3537039e-05 5.1951501e-06 -1.2448734e-06    10.169126 
    8100 0.00040812899   -5.0842554 1.6947117e-05 7.5128919e-06 -1.0877933e-06    10.168946 
    8200 0.00040812313   -5.0842813 1.5639254e-05 3.6719094e-06 -9.3497783e-07    10.168946 
    8300 0.00040817027   -5.0842752 2.0634335e-05 2.5358492e-07 -3.2726598e-06    10.168946 
    8400 0.00040774138    -5.084215 2.0224447e-05 1.3696075e-06 -3.3568279e-06    10.168766 
    8500 0.00040760502      -5.0842 1.4541525e-05 9.3556598e-07 1.1823477e-06    10.168766 
    8600 0.00040756971   -5.0841463 1.4460781e-05 -2.7822738e-06 4.3070092e-06    10.168766 
    8700 0.00040706312   -5.0840255 1.8278276e-05 -5.20189e-06 1.0784628e-06    10.168766 
    8800 0.00040670111   -5.0839094 1.7116511e-05 -9.4769204e-07 -3.2089738e-06    10.168586 
    8900 0.00040617439   -5.0838164 1.3315166e-05 3.2313582e-06 -2.3144297e-06    10.168586 
    9000 0.00040576758   -5.0837468 1.3898828e-05 1.5947021e-06 -2.0719014e-06    10.168586 
    9100 0.00040577217   -5.0837244 1.6547097e-05 1.1667189e-06 -3.2056138e-06    10.168406 
    9200 0.00040615545   -5.0837984 1.4946269e-05 4.3601683e-06 -2.1585248e-06    10.168406 
    9300 0.00040638526    -5.083836 1.1737091e-05 5.1607613e-06 7.2161152e-07    10.168406 
    9400 0.0004062125   -5.0838558 1.2486756e-05 1.9996225e-06 1.6192477e-06    10.168406 
    9500 0.00040627984   -5.0839239 1.441806e-05 -6.6274154e-07 -2.9396969e-07    10.168406 
    9600 0.0004065461   -5.0839109 1.3189089e-05 -5.1486848e-07 4.6653236e-07    10.168406 
    9700 0.00040642188   -5.0838722 1.0626956e-05 -1.7580535e-06 2.8200944e-06    10.168226 
    9800 0.0004061705   -5.0838326 1.1280802e-05 -3.4868266e-06 2.7287279e-06    10.168226 
    9900 0.00040666798   -5.0835647 1.2432396e-05 -2.8727154e-06 1.4556152e-07    10.167686 
   10000 0.00040675506   -5.0831833 1.0832242e-05 4.3061564e-07 -4.1422229e-07    10.166967 
Loop time of 48.2068 on 4 procs for 10000 steps with 11116 atoms

Performance: 896139.501 tau/day, 207.440 timesteps/s
97.7% CPU use with 4 MPI tasks x no OpenMP threads

MPI task timing breakdown:
Section |  min time  |  avg time  |  max time  |%varavg| %total
---------------------------------------------------------------
Pair    | 0.39096    | 0.42232    | 0.45519    |   4.6 |  0.88
Bond    | 30.522     | 33.954     | 38.166     |  51.7 | 70.43
Neigh   | 1.1822     | 1.1872     | 1.1915     |   0.3 |  2.46
Comm    | 3.4201     | 7.9545     | 11.664     | 115.6 | 16.50
Output  | 1.0078     | 1.0085     | 1.0099     |   0.1 |  2.09
Modify  | 3.0972     | 3.3841     | 3.7307     |  14.3 |  7.02
Other   |            | 0.2958     |            |       |  0.61

Nlocal:        2779.00 ave        4159 max        1635 min
Histogram: 2 0 0 0 0 0 0 1 0 1
Nghost:        1002.00 ave        1229 max         800 min
Histogram: 1 1 0 0 0 0 0 1 0 1
Neighs:        11431.8 ave       18381 max        6059 min
Histogram: 2 0 0 0 0 0 1 0 0 1

Total # of neighbors = 45727
Ave neighs/atom = 4.1136200
Ave special neighs/atom = 10.166967
Neighbor list builds = 637
Dangerous builds = 0
Total wall time: 0:00:48
