LAMMPS (30 Jul 2021)
units           lj
dimension       3
boundary        m m m
atom_style      sphere/bpm
special_bonds   lj 0.0 1.0 1.0 coul 0.0 1.0 1.0
newton          on off
comm_modify     vel yes cutoff 2.6
lattice         fcc 1.0
Lattice spacing in x,y,z = 1.5874011 1.5874011 1.5874011
region          box block -5 15 -20 20 -20 20
create_box      1 box bond/types 2 extra/bond/per/atom 20 extra/special/per/atom 50
Created orthogonal box = (-7.9370053 -31.748021 -31.748021) to (23.811016 31.748021 31.748021)
  1 by 2 by 2 MPI processor grid

region          disk cylinder x 0.0 0.0 20.0 -0.5 0.5
create_atoms    1 region disk
Created 7527 atoms
  using lattice units in orthogonal box = (-7.9370053 -31.748021 -31.748021) to (23.811016 31.748021 31.748021)
  create_atoms CPU = 0.002 seconds
group           plate region disk
7527 atoms in group plate

region          ball sphere 8.0 0.0 0.0 6.0
create_atoms    1 region ball
Created 3589 atoms
  using lattice units in orthogonal box = (-7.9370053 -31.748021 -31.748021) to (23.811016 31.748021 31.748021)
  create_atoms CPU = 0.001 seconds
group           projectile region ball
3589 atoms in group projectile

displace_atoms  all random 0.1 0.1 0.1 134598738
Displacing atoms ...

neighbor        1.0 bin
pair_style      gran/hooke/history 1.0 NULL 0.5 NULL 0.1 1
bond_style      bpm/rotational store/local 2 time id1 id2
pair_coeff      1 1
bond_coeff      1 1.0 0.2 0.02 0.02 0.05 0.01 0.005 0.005 0.1 0.02 0.002 0.002
bond_coeff      2 1.0 0.2 0.02 0.02 0.20 0.04 0.020 0.020 0.1 0.02 0.002 0.002

fix             1 all nve/sphere/bpm
fix             2 all store/local 100 3
fix             3 all update/special/bonds

create_bonds    many plate plate 1 0.0 1.5
Neighbor list info ...
  update every 1 steps, delay 10 steps, check yes
  max neighbors/atom: 2000, page size: 100000
  master list distance cutoff = 2
  ghost atom cutoff = 2.6
  binsize = 1, bins = 32 64 64
  2 neighbor lists, perpetual/occasional/extra = 1 1 0
  (1) command create_bonds, occasional
      attributes: full, newton on
      pair build: full/bin
      stencil: full/bin/3d
      bin: standard
  (2) pair gran/hooke/history, perpetual
      attributes: half, newton on, size, history
      pair build: half/size/bin/newton
      stencil: half/bin/3d
      bin: standard
Added 38551 bonds, new total = 38551
Finding 1-2 1-3 1-4 neighbors ...
  special bond factors lj:    0        1        1       
  special bond factors coul:  0        1        1       
    15 = max # of 1-2 neighbors
   101 = max # of special neighbors
  special bonds CPU = 0.001 seconds
create_bonds    many projectile projectile 2 0.0 1.5
Added 21869 bonds, new total = 60420
Finding 1-2 1-3 1-4 neighbors ...
  special bond factors lj:    0        1        1       
  special bond factors coul:  0        1        1       
    16 = max # of 1-2 neighbors
   101 = max # of special neighbors
  special bonds CPU = 0.002 seconds
change_box      all boundary s s s
Changing box ...

neighbor        0.3 bin
special_bonds   lj 0.0 1.0 1.0 coul 1.0 1.0 1.0

velocity        projectile set -0.05 0.0 0.0
compute         nbond all nbond/atom
compute         tbond all reduce sum c_nbond

timestep        0.05
thermo_style    custom step ke pe pxx pyy pzz c_tbond
thermo          100
dump            1 all custom 100 atomDump id radius x y z c_nbond

dump            2 all local 100 brokenDump f_2[1] f_2[2] f_2[3]
dump_modify     2 header no

run             6000
Neighbor list info ...
  update every 1 steps, delay 10 steps, check yes
  max neighbors/atom: 2000, page size: 100000
  master list distance cutoff = 1.3
  ghost atom cutoff = 2.6
  binsize = 0.65, bins = 36 97 97
  1 neighbor lists, perpetual/occasional/extra = 1 0 0
  (1) pair gran/hooke/history, perpetual
      attributes: half, newton on, size, history
      pair build: half/size/bin/newton
      stencil: half/bin/3d
      bin: standard
Per MPI rank memory allocation (min/avg/max) = 34.27 | 34.28 | 34.28 Mbytes
Step KinEng PotEng Pxx Pyy Pzz c_tbond 
       0 0.00053248439   -5.4354084 0.00012848545 -1.0639387e-19 1.5819554e-19    10.870817 
     100 0.00053248439   -5.4354084 0.00013017373 1.1334839e-12 1.784281e-12    10.870817 
     200 0.00053248439   -5.4354084 0.00013279102 1.6787387e-12 5.4953548e-13    10.870817 
     300 0.00053248439   -5.4354084 0.00013459514 3.0577302e-12 -1.2088316e-12    10.870817 
     400 0.00053248439   -5.4354084 0.00013739515 9.7326931e-13 1.1562543e-12    10.870817 
     500 0.0005311195   -5.4353511 0.00013532545 -1.8468866e-06 -1.6585907e-06    10.870817 
     600 0.00051833989   -5.4288362 7.1725873e-05 -1.6444182e-05 -1.9715516e-05    10.860022 
     700 0.00050552886   -5.3985398 -2.3212715e-05 -1.3937832e-05 -1.9091149e-05    10.805955 
     800 0.00050518224   -5.3616112 8.2515921e-05 2.6973287e-05 2.0513255e-05    10.735516 
     900 0.00050396335   -5.3458995 0.00019263348 -3.7564641e-05 -4.5902247e-05    10.699172 
    1000 0.00049399705   -5.3356803 8.3780211e-05 -3.900811e-05 -3.7974569e-05    10.677852 
    1100 0.00047949984   -5.3177445 -3.3039707e-05 7.3302691e-05 9.1425255e-05    10.645196 
    1200 0.0004778277   -5.2918722 2.5525662e-05 -7.3957522e-06 -1.0428816e-06    10.596168 
    1300 0.00047175855   -5.2622229 0.00016622071 -7.5895427e-05 -7.3668463e-05    10.536884 
    1400 0.00047346655   -5.2357068 0.00013088251 3.8629925e-05 4.7370005e-05    10.484257 
    1500 0.00047030222   -5.2110028 2.0138342e-05 0.00014344934 0.00014572537     10.43289 
    1600 0.00047120889   -5.1944302 8.0308725e-05 9.7652665e-05 9.2786939e-05    10.397265 
    1700 0.00046169345   -5.1800484 0.00015698427 -1.2415417e-05 -2.2822524e-05    10.370457 
    1800 0.00045838981   -5.1581008 6.4666951e-05 -2.044593e-05 -3.1699628e-05    10.327726 
    1900 0.00045723383   -5.1435986 7.4830972e-06 2.8528283e-05 9.5685497e-06     10.29615 
    2000 0.00045822947   -5.1339093 8.8355461e-05 2.4391936e-05 2.6856807e-06    10.276268 
    2100 0.00045635704    -5.123239 0.00014447351 -1.885824e-05 -2.5038419e-05    10.252789 
    2200 0.0004531016   -5.1193556 4.9062089e-05 -4.1290134e-05 -2.8125502e-05    10.245682 
    2300 0.00044750986   -5.1059583 -1.3106261e-05 -6.3125644e-05 -3.3287217e-05    10.221303 
    2400 0.00044828631     -5.08466 9.1580692e-05 -3.8583903e-05 -5.1373805e-05    10.177942 
    2500 0.00044674619   -5.0736124 0.00011856396 4.6266072e-06 -1.5907979e-05    10.153203 
    2600 0.00044727275   -5.0614096 5.295308e-05 6.0578952e-05 5.7167864e-05    10.128553 
    2700 0.00044110051   -5.0507956 1.8440804e-05 5.4883922e-05 6.3982178e-05    10.106153 
    2800 0.00043633042   -5.0426937 8.1816485e-05 -1.5431256e-06 -1.855006e-05     10.08996 
    2900 0.00043176823   -5.0356307 0.00012046457 4.4651701e-05 2.7620283e-06    10.075387 
    3000 0.00043218951    -5.027846 3.2574549e-05 7.4433525e-05 4.6834269e-05    10.059554 
    3100 0.00043256828   -5.0161104 3.3101063e-05 4.6551359e-05 5.6531167e-05    10.036164 
    3200 0.0004332929   -5.0068366 8.9512897e-05 -5.7060048e-06 -2.5891142e-06    10.018172 
    3300 0.00043157298   -5.0008275 8.4139723e-05 -3.6940688e-05 -5.1910847e-05    10.005218 
    3400  0.000431398   -4.9965161 2.5625084e-05 1.1433716e-05 6.4926012e-06    9.9965815 
    3500 0.00043011473   -4.9928073 2.7095736e-05 -7.7339585e-06 7.844574e-06    9.9891148 
    3600 0.00042888594   -4.9847529 7.7453653e-05 -4.6984476e-05 -3.5038838e-05    9.9747211 
    3700 0.00042753057   -4.9765311 6.8775078e-05 -3.1077337e-05 -3.3804378e-05    9.9585282 
    3800 0.00042500059   -4.9705379 1.4686991e-05 -2.1799517e-05 -1.2214392e-05    9.9471033 
    3900 0.00042443518   -4.9635965 2.9590319e-05 -7.5174838e-06 9.4138716e-06    9.9336092 
    4000 0.00042354431   -4.9575067 7.497612e-05 -2.241558e-05 -1.7795282e-05    9.9216445 
    4100 0.00042603308    -4.937097 4.8886365e-05 -1.065802e-05 -2.4723829e-05    9.8824217 
    4200 0.00042476916    -4.926145 1.9200413e-05 1.0927038e-05 3.1855248e-06    9.8600216 
    4300 0.00042485728    -4.918146 3.0086129e-05 -8.6292641e-06 2.1921266e-06    9.8440986 
    4400 0.00042494366   -4.9099091 6.2777705e-05 -5.4921818e-06 -7.6169646e-06    9.8263764 
    4500 0.0004275409   -4.8995178 4.7617152e-05 2.1335231e-06 1.1579137e-06    9.8055056 
    4600 0.00042662895   -4.8820208 1.084188e-05 -1.5696264e-06 1.1310734e-05    9.7706909 
    4700 0.00042734689   -4.8725198 3.7425941e-05 -4.439827e-06  1.13299e-05    9.7511695 
    4800 0.00042900821   -4.8540514 5.4751797e-05 -1.1417464e-05 -8.8084486e-06    9.7147355 
    4900 0.00043023872   -4.8363433 3.3053643e-05 3.2468406e-06 -6.4727375e-06    9.6776718 
    5000 0.00043199875   -4.8198092 1.8345516e-05 8.4946117e-06 5.6309681e-06    9.6456459 
    5100 0.00044223594   -4.7778052 3.0243074e-05 -5.0316681e-06 -3.9518237e-06    9.5634221 
    5200 0.00044479909   -4.7640293 4.8598154e-05 -6.7947105e-06 -1.5950295e-05    9.5343649 
    5300 0.0004454718    -4.755521 2.7021591e-05 4.8540854e-06 -5.1116404e-06    9.5168226 
    5400 0.00044509902   -4.7442744 1.5098441e-05 9.1872595e-06 1.0269456e-05    9.4952321 
    5500 0.00044706883   -4.7308865 3.2631779e-05 1.097946e-06 5.8901266e-06    9.4690536 
    5600 0.00045084112   -4.7115078 3.7164777e-05 -2.2594948e-06 -5.1676349e-06    9.4311803 
    5700 0.00045327828   -4.6989042 2.2566508e-05 2.2741586e-06 8.6663706e-07     9.404552 
    5800 0.00046103079   -4.6780119 1.4582664e-05 1.2169813e-06 8.2506998e-06    9.3626304 
    5900 0.00046315911   -4.6539134 2.7960455e-05 -5.7750919e-06 1.1483488e-08     9.313692 
    6000 0.00046381574   -4.6376345 3.2506838e-05 -1.1407228e-07 -5.8332064e-06    9.2804066 
Loop time of 26.8573 on 4 procs for 6000 steps with 11116 atoms

Performance: 965099.761 tau/day, 223.403 timesteps/s
98.4% CPU use with 4 MPI tasks x no OpenMP threads

MPI task timing breakdown:
Section |  min time  |  avg time  |  max time  |%varavg| %total
---------------------------------------------------------------
Pair    | 0.24862    | 0.26655    | 0.28715    |   3.1 |  0.99
Bond    | 18.756     | 20.055     | 21.432     |  25.3 | 74.67
Neigh   | 0.68191    | 0.68601    | 0.69029    |   0.4 |  2.55
Comm    | 1.6547     | 3.1706     | 4.5875     |  69.7 | 11.81
Output  | 0.3381     | 0.33879    | 0.34058    |   0.2 |  1.26
Modify  | 2.0658     | 2.1974     | 2.3512     |   7.6 |  8.18
Other   |            | 0.1428     |            |       |  0.53

Nlocal:        2779.00 ave        3444 max        2189 min
Histogram: 1 0 1 0 0 0 1 0 0 1
Nghost:        1160.25 ave        1335 max         985 min
Histogram: 1 0 1 0 0 0 0 1 0 1
Neighs:        10709.5 ave       13715 max        8243 min
Histogram: 2 0 0 0 0 0 0 1 0 1

Total # of neighbors = 42838
Ave neighs/atom = 3.8537244
Ave special neighs/atom = 9.2786974
Neighbor list builds = 402
Dangerous builds = 0

Total wall time: 0:00:26
