LAMMPS (30 Jul 2021)
units           lj
dimension       3
boundary        f f f
atom_style      bond
special_bonds   lj 0.0 1.0 1.0 coul 0.0 1.0 1.0
newton          on off
comm_modify     vel yes cutoff 2.6
lattice         fcc 1.0
Lattice spacing in x,y,z = 1.5874011 1.5874011 1.5874011
region          box block -25 15 -22 22 -22 22
create_box      1 box bond/types 2 extra/bond/per/atom 20 extra/special/per/atom 50
Created orthogonal box = (-39.685026 -34.922823 -34.922823) to (23.811016 34.922823 34.922823)
  1 by 1 by 1 MPI processor grid

region          disk cylinder x 0.0 0.0 20.0 -0.5 0.5
create_atoms    1 region disk
Created 7529 atoms
  using lattice units in orthogonal box = (-39.685026 -34.922823 -34.922823) to (23.811016 34.922823 34.922823)
  create_atoms CPU = 0.002 seconds
group           plate region disk
7529 atoms in group plate

region          ball sphere 8.0 0.0 0.0 6.0
create_atoms    1 region ball
Created 3589 atoms
  using lattice units in orthogonal box = (-39.685026 -34.922823 -34.922823) to (23.811016 34.922823 34.922823)
  create_atoms CPU = 0.001 seconds
group           projectile region ball
3589 atoms in group projectile

displace_atoms  all random 0.1 0.1 0.1 134598738
Displacing atoms ...

mass            1 1.0

neighbor        1.0 bin
pair_style      bpm/spring
bond_style      bpm/spring store/local 2 time id1 id2
pair_coeff      1 1 1.0 1.0 1.0
bond_coeff      1 1.0 0.04 1.0
bond_coeff      2 1.0 0.20 1.0

fix             1 all nve
fix             2 all store/local 100 3
fix             3 all update/special/bonds

create_bonds    many plate plate 1 0.0 1.5
Neighbor list info ...
  update every 1 steps, delay 10 steps, check yes
  max neighbors/atom: 2000, page size: 100000
  master list distance cutoff = 2
  ghost atom cutoff = 2.6
  binsize = 1, bins = 64 70 70
  2 neighbor lists, perpetual/occasional/extra = 1 1 0
  (1) command create_bonds, occasional
      attributes: full, newton on
      pair build: full/bin
      stencil: full/bin/3d
      bin: standard
  (2) pair bpm/spring, perpetual
      attributes: half, newton on
      pair build: half/bin/newton
      stencil: half/bin/3d
      bin: standard
Added 38559 bonds, new total = 38559
Finding 1-2 1-3 1-4 neighbors ...
  special bond factors lj:    0        1        1       
  special bond factors coul:  0        1        1       
    15 = max # of 1-2 neighbors
   101 = max # of special neighbors
  special bonds CPU = 0.004 seconds
create_bonds    many projectile projectile 2 0.0 1.5
WARNING: Communication cutoff 2.6 is shorter than a bond length based estimate of 2.799982026012842. This may lead to errors. (../comm.cpp:734)
Added 21869 bonds, new total = 60428
Finding 1-2 1-3 1-4 neighbors ...
  special bond factors lj:    0        1        1       
  special bond factors coul:  0        1        1       
    16 = max # of 1-2 neighbors
   101 = max # of special neighbors
  special bonds CPU = 0.005 seconds

neighbor        0.3 bin
special_bonds   lj 0.0 1.0 1.0 coul 1.0 1.0 1.0

velocity        projectile set -0.05 0.0 0.0
compute         nbond all nbond/atom
compute         tbond all reduce sum c_nbond

timestep        0.1
thermo_style    custom step ke pe pxx pyy pzz c_tbond
thermo          100
thermo_modify   lost ignore lost/bond ignore
dump            1 all custom 100 atomDump id x y z c_nbond

dump            2 all local 100 brokenDump f_2[1] f_2[2] f_2[3]
dump_modify     2 header no

run             7500
Neighbor list info ...
  update every 1 steps, delay 10 steps, check yes
  max neighbors/atom: 2000, page size: 100000
  master list distance cutoff = 1.3
  ghost atom cutoff = 2.6
  binsize = 0.65, bins = 98 108 108
  1 neighbor lists, perpetual/occasional/extra = 1 0 0
  (1) pair bpm/spring, perpetual
      attributes: half, newton on
      pair build: half/bin/newton
      stencil: half/bin/3d
      bin: standard
Per MPI rank memory allocation (min/avg/max) = 24.30 | 24.30 | 24.30 Mbytes
Step KinEng PotEng Pxx Pyy Pzz c_tbond 
       0 0.0010167873            0 7.298968e-05            0            0      10.8703 
     100 0.0010167873            0 7.298968e-05 -8.7429897e-20 -8.8470837e-20      10.8703 
     200 0.0010167873            0 7.298968e-05 -7.2809565e-20 -8.0915788e-20      10.8703 
     300 0.00099636578 -7.0816681e-06 9.8353035e-05 8.4642384e-06 8.0469072e-06    10.867242 
     400 0.00095644407 -4.9965293e-06 0.00012441378 -1.2397227e-05 -1.4980269e-05    10.839719 
     500 0.00092977183 -3.86131e-06 7.8605818e-05 -2.7329699e-06 -7.396399e-06    10.799424 
     600 0.00089787559 -2.9680488e-06 6.335469e-05 2.1448463e-06 4.5296678e-07    10.768663 
     700 0.00087244204 -2.6549464e-06 8.7340708e-05 -4.5516627e-06 -1.8690112e-06     10.74186 
     800 0.00084695959 -3.8045185e-06 8.0745955e-05 -4.5691607e-06 -1.6326641e-06    10.715237 
     900 0.00082108378 -3.7632176e-06 6.6501438e-05 -4.9020688e-06 3.5594859e-06    10.691131 
    1000 0.00079998853 -4.8468066e-06 6.5750228e-05 -8.3521669e-06 5.2266599e-06     10.66127 
    1100 0.00077368031 -2.5220164e-06 5.8210276e-05 2.6426591e-06 4.938121e-06    10.643461 
    1200 0.00074855587 -2.9570391e-06 5.2368186e-05 1.6897526e-06 2.4286268e-06    10.622054 
    1300 0.00072611594 -3.7109651e-06 5.8006188e-05 -2.6857728e-06 -5.6178729e-06    10.595611 
    1400 0.00070923315 -4.2629754e-06 5.3503366e-05 4.7475371e-06 -7.7268696e-06    10.569347 
    1500 0.00069740085 -3.0765543e-06 4.6753588e-05 1.2633383e-05 2.5315165e-06    10.540925 
    1600 0.00068657492 -3.0455076e-06 5.1582206e-05 1.4017258e-05 8.8044278e-06    10.519338 
    1700 0.00067656011 -3.4280513e-06 5.0396015e-05 8.4547122e-06 8.0820402e-06     10.50045 
    1800 0.00066870293 -3.4484153e-06 4.815639e-05 7.5212913e-07 1.1483891e-06    10.488217 
    1900 0.00065786507 -4.2634733e-06 4.9330522e-05 -1.108344e-05 -7.4259153e-06    10.474726 
    2000 0.00064106212 -4.7031033e-06 4.552393e-05 -1.7535521e-05 -1.6263295e-05    10.453139 
    2100 0.00062134889 -3.5304279e-06 3.809727e-05 -2.2412517e-05 -2.2946813e-05    10.433891 
    2200 0.00059830887 -3.2395481e-06 3.5740566e-05 -1.796758e-05 -1.8599386e-05    10.417881 
    2300 0.00057522207 -2.9905465e-06 3.4002427e-05 -6.7236311e-06 -1.4718938e-05    10.401511 
    2400 0.00055324818 -4.519622e-06 2.8286989e-05 5.379357e-06 -2.3963109e-06    10.383342 
    2500 0.00053140276 -4.5450401e-06 2.6655404e-05 1.4698667e-05 1.5782329e-05    10.362835 
    2600 0.00051144636 -4.1683588e-06 2.4944253e-05 2.5072313e-05 2.3558987e-05     10.33837 
    2700 0.00049421672 -5.8949891e-06 2.0313469e-05 2.4375973e-05 2.3609392e-05    10.320921 
    2800 0.00047936442 -5.7929485e-06 1.8523402e-05 1.6894086e-05  2.34875e-05     10.29016 
    2900 0.00046579117 -6.7340102e-06 1.8239135e-05 1.9583159e-05 1.821014e-05    10.266954 
    3000 0.00045439794 -5.5845157e-06 1.7413232e-05 2.0937177e-05 1.0934407e-05    10.246447 
    3100 0.00044541881 -5.1519292e-06 1.6153079e-05 1.4874654e-05 4.1969429e-06    10.233495 
    3200 0.00043791644 -5.0105552e-06 2.0005341e-05 4.7318756e-06 1.4446699e-08    10.223961 
    3300 0.00043012829 -4.8924048e-06 2.275482e-05 -6.5889472e-07 2.8411666e-06    10.212448 
    3400 0.00042478693 -4.7736643e-06 1.8655218e-05 -1.0408543e-05 -2.5097213e-06    10.203814 
    3500 0.00041885602 -4.1938783e-06 1.6924096e-05 -1.6723773e-05 -1.0907364e-05    10.197158 
    3600 0.00041470126 -4.4256374e-06 2.1660002e-05 -1.2589975e-05 -8.9195821e-06    10.191042 
    3700 0.00041103162 -4.0558298e-06 2.1463315e-05 -1.1052983e-05 -1.1288374e-05    10.186185 
    3800 0.0004064031 -4.085737e-06 2.1186979e-05 -7.6827664e-06 -8.4420523e-06    10.182407 
    3900 0.00040439659 -3.8043843e-06 2.2246535e-05 -9.8091295e-06 -6.337729e-06    10.179169 
    4000 0.00040248064 -5.207414e-06 2.4991678e-05 -8.9269116e-06 -1.3269351e-06    10.175931 
    4100 0.00039984629 -3.9470913e-06 2.0638508e-05 -1.0311727e-05 -7.0570926e-07    10.171973 
    4200 0.00039748539 -4.1530392e-06 2.2201704e-05 -1.9419136e-06 3.9363863e-06    10.169995 
    4300 0.00039699527 -4.4361889e-06 2.4637559e-05 3.0466639e-06 2.6075192e-06    10.167836 
    4400 0.00039577202 -4.5243252e-06 2.3254304e-05 9.3960261e-06 7.0976687e-06    10.165138 
    4500 0.00039438637 -4.4623531e-06 2.5479152e-05 1.3111125e-05 9.1080155e-06    10.163699 
    4600 0.00039279153 -4.3667553e-06 2.4372973e-05 1.6089732e-05 8.9825485e-06    10.162439 
    4700 0.00039304328 -4.0850029e-06 2.3031657e-05 1.4377571e-05 1.0046115e-05       10.161 
    4800 0.0003930794 -4.2247499e-06 2.3528523e-05 8.7677526e-06 1.1123548e-05     10.16082 
    4900 0.00039357048 -4.0441827e-06 2.2238523e-05 7.0463814e-06 1.0318253e-05    10.160281 
    5000 0.00039305174 -4.0989874e-06 2.3082845e-05 4.7559622e-06 9.1784689e-06    10.159561 
    5100 0.00039281446 -3.9654637e-06 2.4406601e-05 6.6792841e-07 3.9479578e-06    10.158662 
    5200 0.00039266969 -3.7000839e-06 2.3342952e-05 -4.0814362e-07 -1.7091512e-07    10.157762 
    5300 0.00039179548 -3.6041015e-06 2.2308731e-05 -2.3038721e-06 -7.7478695e-06    10.156863 
    5400 0.00039126557 -3.3816417e-06 2.5032837e-05 -4.2112558e-06 -1.0544895e-05    10.155244 
    5500 0.00039013707 -3.2015334e-06 2.4333377e-05 -9.4600548e-06 -8.164991e-06    10.153985 
    5600 0.00038863118 -3.2457645e-06 2.5234836e-05 -1.3025121e-05 -4.212353e-06    10.152545 
    5700 0.00038755505 -3.1192824e-06 2.4611567e-05 -1.7034285e-05 -7.4484904e-06    10.150926 
    5800 0.00038682794 -3.159343e-06 2.4790374e-05 -2.1244353e-05 -9.5959604e-06    10.150027 
    5900 0.00038514658 -3.1365816e-06 2.4775049e-05 -2.013337e-05 -8.7609997e-06    10.147688 
    6000 0.00038273205 -3.5768746e-06 2.4513287e-05 -1.7197146e-05 -7.7627989e-06     10.14553 
    6100 0.00038118307 -3.2886293e-06 2.4104512e-05 -1.1683647e-05 -9.0156319e-06    10.144091 
    6200 0.00037877747 -3.5457022e-06 2.546258e-05 -5.3008572e-06 -1.0680602e-05    10.142292 
    6300 0.00037631131 -3.7852195e-06 2.4823247e-05 -5.9313668e-06 -8.837521e-06    10.141033 
    6400 0.00037412558 -4.1058533e-06 2.434972e-05 -5.8192486e-06 -1.9415666e-06    10.139773 
    6500 0.00037259808 -4.0091084e-06 2.4652474e-05 -4.5769183e-06 -2.9449568e-06    10.137974 
    6600 0.00037090733 -4.1292855e-06 2.4417194e-05 -4.1646449e-06 8.6273141e-07    10.134916 
    6700 0.00036992828 -4.0221056e-06 2.3588901e-05 -6.8333754e-06 -2.5804065e-07    10.133477 
    6800 0.00036883832 -4.0617393e-06 2.4407327e-05 -4.6933138e-06 5.9097433e-07    10.131319 
    6900 0.00036806181 -3.98881e-06 2.5070794e-05 -1.8839397e-06 1.8686666e-06    10.129879 
    7000 0.00036759453 -3.8395938e-06 2.499485e-05 5.8078766e-06 5.491628e-06     10.12844 
    7100 0.00036661989 -3.807276e-06 2.3841577e-05 9.8514185e-06 2.8498309e-06    10.125922 
    7200 0.0003643494 -3.8754489e-06 2.4003718e-05 6.4101669e-06 -1.0308979e-06    10.124483 
    7300 0.00036261161 -3.8682002e-06 2.345457e-05 6.5773508e-06 1.0241788e-06    10.123583 
    7400 0.00036215882 -3.8404085e-06 2.2989219e-05 1.3012853e-05 5.3465279e-06    10.122324 
    7500 0.00036219767 -3.7430511e-06 2.6189702e-05 1.3646428e-05 7.8525122e-06    10.121065 
Loop time of 17.1159 on 1 procs for 7500 steps with 11118 atoms

Performance: 3785956.989 tau/day, 438.189 timesteps/s
97.1% CPU use with 1 MPI tasks x no OpenMP threads

MPI task timing breakdown:
Section |  min time  |  avg time  |  max time  |%varavg| %total
---------------------------------------------------------------
Pair    | 1.1678     | 1.1678     | 1.1678     |   0.0 |  6.82
Bond    | 7.299      | 7.299      | 7.299      |   0.0 | 42.64
Neigh   | 3.105      | 3.105      | 3.105      |   0.0 | 18.14
Comm    | 0.049905   | 0.049905   | 0.049905   |   0.0 |  0.29
Output  | 1.4391     | 1.4391     | 1.4391     |   0.0 |  8.41
Modify  | 3.8866     | 3.8866     | 3.8866     |   0.0 | 22.71
Other   |            | 0.1685     |            |       |  0.98

Nlocal:        11118.0 ave       11118 max       11118 min
Histogram: 1 0 0 0 0 0 0 0 0 0
Nghost:         0.00000 ave           0 max           0 min
Histogram: 1 0 0 0 0 0 0 0 0 0
Neighs:        47063.0 ave       47063 max       47063 min
Histogram: 1 0 0 0 0 0 0 0 0 0

Total # of neighbors = 47063
Ave neighs/atom = 4.2330455
Ave special neighs/atom = 10.121065
Neighbor list builds = 464
Dangerous builds = 1
Total wall time: 0:00:17
