LAMMPS (30 Jul 2021)
units           lj
dimension       3
boundary        f f f
atom_style      sphere/bpm
special_bonds   lj 0.0 1.0 1.0 coul 0.0 1.0 1.0
newton          on off
comm_modify     vel yes cutoff 2.6
lattice         fcc 1.0
Lattice spacing in x,y,z = 1.5874011 1.5874011 1.5874011
region          box block -25 15 -22 22 -22 22
create_box      1 box bond/types 2 extra/bond/per/atom 20 extra/special/per/atom 50
Created orthogonal box = (-39.685026 -34.922823 -34.922823) to (23.811016 34.922823 34.922823)
  1 by 1 by 1 MPI processor grid

region          disk cylinder x 0.0 0.0 20.0 -0.5 0.5
create_atoms    1 region disk
Created 7529 atoms
  using lattice units in orthogonal box = (-39.685026 -34.922823 -34.922823) to (23.811016 34.922823 34.922823)
  create_atoms CPU = 0.004 seconds
group           plate region disk
7529 atoms in group plate

region          ball sphere 8.0 0.0 0.0 6.0
create_atoms    1 region ball
Created 3589 atoms
  using lattice units in orthogonal box = (-39.685026 -34.922823 -34.922823) to (23.811016 34.922823 34.922823)
  create_atoms CPU = 0.002 seconds
group           projectile region ball
3589 atoms in group projectile

displace_atoms  all random 0.1 0.1 0.1 134598738
Displacing atoms ...

neighbor        1.0 bin
pair_style      gran/hooke/history 1.0 NULL 0.5 NULL 0.1 1
bond_style      bpm/rotational store/local 2 time id1 id2
pair_coeff      1 1
bond_coeff      1 1.0 0.2 0.02 0.02 0.05 0.01 0.01 0.01 0.1 0.02 0.002 0.002
bond_coeff      2 1.0 0.2 0.02 0.02 0.20 0.04 0.04 0.04 0.1 0.02 0.002 0.002

fix             1 all nve/sphere/bpm
fix             2 all store/local 100 3
fix             3 all update/special/bonds

create_bonds    many plate plate 1 0.0 1.5
Neighbor list info ...
  update every 1 steps, delay 10 steps, check yes
  max neighbors/atom: 2000, page size: 100000
  master list distance cutoff = 2
  ghost atom cutoff = 2.6
  binsize = 1, bins = 64 70 70
  2 neighbor lists, perpetual/occasional/extra = 1 1 0
  (1) command create_bonds, occasional
      attributes: full, newton on
      pair build: full/bin
      stencil: full/bin/3d
      bin: standard
  (2) pair gran/hooke/history, perpetual
      attributes: half, newton on, size, history
      pair build: half/size/bin/newton
      stencil: half/bin/3d
      bin: standard
Added 38559 bonds, new total = 38559
Finding 1-2 1-3 1-4 neighbors ...
  special bond factors lj:    0        1        1       
  special bond factors coul:  0        1        1       
    15 = max # of 1-2 neighbors
   101 = max # of special neighbors
  special bonds CPU = 0.007 seconds
create_bonds    many projectile projectile 2 0.0 1.5
Added 21869 bonds, new total = 60428
Finding 1-2 1-3 1-4 neighbors ...
  special bond factors lj:    0        1        1       
  special bond factors coul:  0        1        1       
    16 = max # of 1-2 neighbors
   101 = max # of special neighbors
  special bonds CPU = 0.010 seconds

neighbor        0.3 bin
special_bonds   lj 0.0 1.0 1.0 coul 1.0 1.0 1.0

velocity        projectile set -0.05 0.0 0.0
compute         nbond all nbond/atom
compute         tbond all reduce sum c_nbond

timestep        0.05
thermo_style    custom step ke pe pxx pyy pzz c_tbond
thermo          100
thermo_modify   lost ignore lost/bond ignore
#dump            1 all custom 100 atomDump id radius x y z c_nbond

dump            2 all local 100 brokenDump f_2[1] f_2[2] f_2[3]
dump_modify     2 header no

run             7500
Neighbor list info ...
  update every 1 steps, delay 10 steps, check yes
  max neighbors/atom: 2000, page size: 100000
  master list distance cutoff = 1.3
  ghost atom cutoff = 2.6
  binsize = 0.65, bins = 98 108 108
  1 neighbor lists, perpetual/occasional/extra = 1 0 0
  (1) pair gran/hooke/history, perpetual
      attributes: half, newton on, size, history
      pair build: half/size/bin/newton
      stencil: half/bin/3d
      bin: standard
Per MPI rank memory allocation (min/avg/max) = 39.18 | 39.18 | 39.18 Mbytes
Step KinEng PotEng Pxx Pyy Pzz c_tbond 
       0 0.00053238861            0 3.8217307e-05            0            0      10.8703 
     100 0.00053238861            0 3.8217307e-05 3.7024766e-13 -2.6107956e-13      10.8703 
     200 0.00053238861            0 3.8217307e-05 -4.6764996e-13 5.7734804e-13      10.8703 
     300 0.00053238861            0 3.8217308e-05 -6.6404932e-13 -1.4463201e-13      10.8703 
     400 0.00053238861            0 3.8217307e-05 -1.5842255e-13 3.2646699e-14      10.8703 
     500 0.00053102307            0 3.6857657e-05 -5.0613842e-07 -4.5464639e-07      10.8703 
     600 0.00051549565            0 1.5836226e-05 -6.6250357e-06 -7.1458399e-06    10.868322 
     700 0.00050120381            0 -1.9467767e-05 -7.7209878e-06 -1.121158e-05    10.850333 
     800 0.00049861454            0 1.5365076e-05 5.214591e-06 2.7950985e-06    10.803742 
     900 0.00049582022            0 5.7445368e-05 -2.1846154e-05 -2.3927093e-05    10.738082 
    1000 0.00049342915            0 4.9596969e-05 -8.1907786e-06 -1.3269952e-05    10.688433 
    1100 0.00048639213            0 1.0822487e-05 3.9352339e-05 4.0409565e-05    10.667026 
    1200  0.000483091            0 3.8492853e-06 2.2015581e-05 3.1490077e-05    10.646159 
    1300 0.00047987023            0 5.8429983e-05 -7.8096854e-06 3.9318833e-06    10.631229 
    1400 0.00048104927            0 4.6603937e-05 -1.2320299e-05 -1.010841e-05    10.619536 
    1500 0.00047270384            0 -1.622772e-06 1.5996657e-05 1.5652658e-05    10.606944 
    1600 0.00045720595            0  1.64434e-06 1.0627449e-05 7.2901589e-06    10.597949 
    1700 0.00044826095            0 3.3113848e-05 -3.1886382e-05 -4.1076437e-05    10.584458 
    1800 0.00044859158            0 3.8589858e-05 -3.217135e-05 -4.4394932e-05    10.554236 
    1900 0.00044410417            0 1.6071124e-06 3.469787e-06 -1.172431e-05    10.528153 
    2000 0.00043690537            0 1.8298385e-05 3.2800463e-05 2.3766026e-05     10.49955 
    2100 0.00043113053            0 5.5169319e-05 1.0337577e-05 6.8334001e-06    10.449541 
    2200 0.00042795839            0 3.3555532e-05 -7.8682107e-06 1.4501739e-06     10.40277 
    2300 0.0004240013            0 8.8868452e-06 1.8196289e-06 2.755748e-05    10.362115 
    2400 0.00042426888            0 2.3953861e-05 1.7614888e-05 4.2827512e-05    10.340529 
    2500 0.00041903776            0 5.1969184e-05 2.5725967e-05 4.2229194e-05    10.324879 
    2600 0.00042070944            0 4.0633614e-05 2.6089786e-05 3.2212886e-05    10.313006 
    2700 0.00041907255            0 1.0826647e-05 2.7725133e-05 3.3535626e-05    10.301673 
    2800 0.00041823551            0 2.7757924e-05 1.462054e-05 1.629062e-05    10.288001 
    2900 0.00041833009            0 5.016926e-05 2.1116657e-06 -9.0474367e-06    10.276129 
    3000 0.0004200714            0 2.9312093e-05 8.0995894e-06 -1.427634e-05    10.266954 
    3100 0.00041930877            0 8.2905585e-06 2.5106255e-06 -6.0475079e-06    10.259039 
    3200 0.00042002824            0 2.7415565e-05 -2.5467008e-05 -1.1758229e-05    10.249146 
    3300 0.00041772304            0 4.7010143e-05 -3.2166248e-05 -2.3740064e-05    10.245728 
    3400 0.00041567147            0 2.265559e-05 -1.4994351e-05 -1.4387458e-05    10.244828 
    3500 0.00041264993            0 9.4675076e-06 -1.2940542e-05 -2.6164909e-06    10.243929 
    3600 0.00041296772            0 3.2135436e-05 -2.3723233e-05 -1.1358132e-05    10.243029 
    3700 0.00041218299            0 4.3546104e-05 -1.6744403e-05 -2.1466737e-05    10.240871 
    3800 0.00041196427            0 2.4626877e-05 8.2428335e-06 -9.6621514e-06    10.236913 
    3900 0.00041061174            0 1.5527454e-05 1.4796165e-05 8.5041818e-06    10.229718 
    4000 0.00041008163            0 3.6758236e-05 -4.1693239e-06 -2.3638032e-07    10.221083 
    4100 0.00040807476            0 4.2903311e-05 -8.7361319e-06 -9.2843568e-06    10.211909 
    4200 0.00040749974            0 2.1764542e-05 -1.5964475e-07 1.1116464e-06    10.205972 
    4300 0.00040585168            0 1.6398189e-05 -6.2081757e-07 1.4245018e-05    10.203454 
    4400 0.00040614156            0 3.8921994e-05 -1.0816449e-05 8.8070462e-06    10.198237 
    4500 0.00040550623            0 4.1195875e-05 -4.4468565e-06 -4.5109048e-06     10.19356 
    4600 0.00040471568            0 1.9924175e-05 8.0584659e-06 2.8014197e-06    10.186904 
    4700 0.00040443998            0 2.0848233e-05 7.2219213e-06 8.5736771e-06    10.182947 
    4800 0.00040411017            0 3.8995426e-05 -3.5139599e-06 -1.7346701e-06     10.17773 
    4900 0.00040369283            0 3.8616558e-05 -3.8837458e-07 -6.5227651e-06    10.174492 
    5000 0.00040347603            0 1.957792e-05 5.3591428e-06 5.0851337e-06    10.171074 
    5100   0.00040318            0 2.0628515e-05 -6.133528e-06 8.9227218e-06    10.166217 
    5200 0.00040396442            0 3.9097282e-05 -1.3317561e-05 -2.4599499e-06    10.158842 
    5300 0.00040420662            0 3.5316538e-05 -1.4346009e-06 -5.7802302e-06    10.154704 
    5400 0.00040419432            0 1.9706975e-05 6.6651292e-06 3.0821293e-06    10.148768 
    5500 0.00040500025            0 2.2492943e-05 -8.2260426e-06 4.6721228e-06     10.14463 
    5600 0.00040447185            0 3.8628198e-05 -8.844675e-06 -6.7043678e-07    10.143191 
    5700 0.00040435949            0 3.5236357e-05 5.3512632e-06 -2.9663861e-07    10.141752 
    5800 0.00040356839            0 1.8078404e-05 7.7468465e-06 4.1618489e-06    10.141045 
    5900 0.00040255066            0 2.5803838e-05 9.5521231e-07 3.4211797e-06     10.14251 
    6000 0.00040255799            0 3.8202776e-05 -3.5222942e-06 -7.4050996e-06     10.14233 
    6100 0.00040280742            0 3.0004475e-05 2.0612828e-06 -7.0155478e-06     10.14197 
    6200 0.00040180209            0 1.8453425e-05 2.5937959e-06 6.019204e-06    10.142703 
    6300 0.00040159364            0 2.6608078e-05 -3.4326767e-06 6.5089502e-06    10.142163 
    6400 0.00039963271            0 3.7746341e-05 -1.3954533e-06 -6.6816781e-06    10.143076 
    6500 0.0003995975            0 2.7758521e-05 6.370558e-06 -8.535581e-06    10.143076 
    6600 0.00039973428            0 1.8062746e-05 6.3493548e-06 1.2970441e-06    10.143076 
    6700 0.00039987367            0 2.7872598e-05 2.9794629e-07 3.1449123e-06    10.143988 
    6800 0.00039942046            0 3.6871697e-05 4.4181241e-07 -3.7266658e-06    10.146188 
    6900 0.00039937936            0  2.73304e-05 6.4090146e-06 1.1834424e-06    10.147835 
    7000 0.00039934517            0 2.0161434e-05 5.3875016e-06 1.141564e-05    10.147835 
    7100 0.00039884824            0 3.0603701e-05 7.327098e-07 5.1369462e-06    10.148402 
    7200 0.00039774709            0 3.5965545e-05 3.6906864e-06 -5.6506465e-06    10.148969 
    7300 0.00039642146            0 2.4883695e-05 7.2866197e-06 -8.2009411e-07    10.151379 
    7400 0.00039605388            0 2.0790699e-05 2.6616664e-06 1.1522615e-05    10.152321 
    7500 0.00039471805            0 3.0911798e-05 -4.6441697e-06 5.9470361e-06    10.154748 
Loop time of 114.934 on 1 procs for 7500 steps with 11089 atoms

Performance: 281901.613 tau/day, 65.255 timesteps/s
99.7% CPU use with 1 MPI tasks x no OpenMP threads

MPI task timing breakdown:
Section |  min time  |  avg time  |  max time  |%varavg| %total
---------------------------------------------------------------
Pair    | 1.2383     | 1.2383     | 1.2383     |   0.0 |  1.08
Bond    | 101.4      | 101.4      | 101.4      |   0.0 | 88.22
Neigh   | 2.7723     | 2.7723     | 2.7723     |   0.0 |  2.41
Comm    | 0.075342   | 0.075342   | 0.075342   |   0.0 |  0.07
Output  | 0.06732    | 0.06732    | 0.06732    |   0.0 |  0.06
Modify  | 9.1154     | 9.1154     | 9.1154     |   0.0 |  7.93
Other   |            | 0.2695     |            |       |  0.23

Nlocal:        11089.0 ave       11089 max       11089 min
Histogram: 1 0 0 0 0 0 0 0 0 0
Nghost:         0.00000 ave           0 max           0 min
Histogram: 1 0 0 0 0 0 0 0 0 0
Neighs:        45554.0 ave       45554 max       45554 min
Histogram: 1 0 0 0 0 0 0 0 0 0

Total # of neighbors = 45554
Ave neighs/atom = 4.1080350
Ave special neighs/atom = 10.156101
Neighbor list builds = 467
Dangerous builds = 0
Total wall time: 0:01:55
