LAMMPS (10 Oct 2018)
OMP_NUM_THREADS environment is not set. Defaulting to 1 thread. (src/comm.cpp:87)
  using 1 OpenMP thread(s) per MPI task
units		real
atom_style	full

read_data	data.spce
  orthogonal box = (0.02645 0.02645 0.02641) to (35.5328 35.5328 35.4736)
  1 by 2 by 1 MPI processor grid
  reading atoms ...
  4500 atoms
  scanning bonds ...
  2 = max bonds/atom
  scanning angles ...
  1 = max angles/atom
  reading bonds ...
  3000 bonds
  reading angles ...
  1500 angles
  2 = max # of 1-2 neighbors
  1 = max # of 1-3 neighbors
  1 = max # of 1-4 neighbors
  2 = max # of special neighbors

pair_style      lj/cut/coul/long 12.0 12.0
pair_coeff      * * 0.0     1.0
pair_coeff      1 1 0.15535 3.166
kspace_style	pppm 1.0e-6

bond_style	harmonic
angle_style	harmonic
dihedral_style	none
improper_style	none

bond_coeff	1 1000.00 1.000
angle_coeff	1 100.0 109.47

# need to set bond/angle inclusion to > 0.0
# so that intramolecular pairs are included in neighbor lists (required for second ADF)
special_bonds   lj/coul 1.0e-100 1.0e-100 1.0
  2 = max # of 1-2 neighbors
  1 = max # of 1-3 neighbors
  2 = max # of special neighbors

neighbor        2.0 bin
timestep        2.0
neigh_modify    every 1 delay 2 check yes

fix		1 all shake 0.0001 20 0 b 1 a 1
  0 = # of size 2 clusters
  0 = # of size 3 clusters
  0 = # of size 4 clusters
  1500 = # of frozen angles
fix		2 all nvt temp 300.0 300.0 100.0

velocity all create 300.0 6244325

thermo 100
run 500
PPPM initialization ...
  using 12-bit tables for long-range coulomb (src/kspace.cpp:321)
  G vector (1/distance) = 0.279652
  grid = 40 40 40
  stencil order = 5
  estimated absolute RMS force accuracy = 0.000394674
  estimated relative force accuracy = 1.18855e-06
  using double precision FFTs
  3d grid and FFT values/proc = 59643 32000
Neighbor list info ...
  update every 1 steps, delay 2 steps, check yes
  max neighbors/atom: 2000, page size: 100000
  master list distance cutoff = 14
  ghost atom cutoff = 14
  binsize = 7, bins = 6 6 6
  1 neighbor lists, perpetual/occasional/extra = 1 0 0
  (1) pair lj/cut/coul/long, perpetual
      attributes: half, newton on
      pair build: half/bin/newton
      stencil: half/bin/3d/newton
      bin: standard
Per MPI rank memory allocation (min/avg/max) = 25.06 | 25.25 | 25.44 Mbytes
Step Temp E_pair E_mol TotEng Press 
       0          300   -16692.369            0   -14010.534   -112.83562 
     100    283.44729   -17008.717            0   -14474.854   -162.06374 
     200    298.75279   -16765.544            0   -14094.858    428.79127 
     300     296.6501   -16589.155            0   -13937.267    547.40768 
     400    303.83151   -16625.028            0   -13908.942     237.9775 
     500    298.01615   -16717.015            0   -14052.915     230.7095 
Loop time of 21.4041 on 2 procs for 500 steps with 4500 atoms

Performance: 4.037 ns/day, 5.946 hours/ns, 23.360 timesteps/s
94.8% CPU use with 2 MPI tasks x 1 OpenMP threads

MPI task timing breakdown:
Section |  min time  |  avg time  |  max time  |%varavg| %total
---------------------------------------------------------------
Pair    | 14.892     | 15.034     | 15.176     |   3.7 | 70.24
Bond    | 0.00056624 | 0.00059342 | 0.0006206  |   0.0 |  0.00
Kspace  | 3.987      | 4.1321     | 4.2773     |   7.1 | 19.31
Neigh   | 1.7494     | 1.7496     | 1.7497     |   0.0 |  8.17
Comm    | 0.20554    | 0.20637    | 0.2072     |   0.2 |  0.96
Output  | 0.00015688 | 0.00036144 | 0.00056601 |   0.0 |  0.00
Modify  | 0.25707    | 0.2606     | 0.26413    |   0.7 |  1.22
Other   |            | 0.02059    |            |       |  0.10

Nlocal:    2250 ave 2258 max 2242 min
Histogram: 1 0 0 0 0 0 0 0 0 1
Nghost:    16319 ave 16381 max 16257 min
Histogram: 1 0 0 0 0 0 0 0 0 1
Neighs:    1.30073e+06 ave 1.32386e+06 max 1.2776e+06 min
Histogram: 1 0 0 0 0 0 0 0 0 1

Total # of neighbors = 2601457
Ave neighs/atom = 578.102
Ave special neighs/atom = 2
Neighbor list builds = 45
Dangerous builds = 0

reset_timestep 0

compute gofr all rdf 100  1 1  2 2  1 2  # O-O, H-H, O-H
compute gofa all adf  45  1 1 1  2.0 3.5  2.0 3.5                           1 2 1  0.0 1.2  1.5 2.5
fix rdf all ave/time 100 10 1000 c_gofr[*] file spce-rdf.dat mode vector
fix adf all ave/time 10 100 1000 c_gofa[*] file spce-adf.dat mode vector

run 1000
PPPM initialization ...
  using 12-bit tables for long-range coulomb (src/kspace.cpp:321)
  G vector (1/distance) = 0.279652
  grid = 40 40 40
  stencil order = 5
  estimated absolute RMS force accuracy = 0.000394674
  estimated relative force accuracy = 1.18855e-06
  using double precision FFTs
  3d grid and FFT values/proc = 59643 32000
Neighbor list info ...
  update every 1 steps, delay 2 steps, check yes
  max neighbors/atom: 2000, page size: 100000
  master list distance cutoff = 14
  ghost atom cutoff = 14
  binsize = 7, bins = 6 6 6
  3 neighbor lists, perpetual/occasional/extra = 1 2 0
  (1) pair lj/cut/coul/long, perpetual
      attributes: half, newton on
      pair build: half/bin/newton
      stencil: half/bin/3d/newton
      bin: standard
  (2) compute rdf, occasional, copy from (1)
      attributes: half, newton on
      pair build: copy
      stencil: none
      bin: none
  (3) compute adf, occasional
      attributes: full, newton on
      pair build: full/bin
      stencil: full/bin/3d
      bin: standard
Per MPI rank memory allocation (min/avg/max) = 26.78 | 26.78 | 26.78 Mbytes
Step Temp E_pair E_mol TotEng Press 
       0    298.01615   -16717.015            0   -14052.915    230.81371 
     100     307.1766    -16759.33            0   -14013.341     454.2771 
     200    298.94628   -16674.186            0   -14001.771    114.20846 
     300    293.13091   -16581.542            0   -13961.113    272.85574 
     400    294.47017   -16556.872            0   -13924.471     180.3252 
     500    305.57174   -16647.976            0   -13916.333   -444.14856 
     600    302.53992   -16670.304            0   -13965.764    114.82353 
     700    306.56761   -16616.508            0   -13875.962    534.02537 
     800    299.06297   -16644.133            0   -13970.675    83.643063 
     900    301.15522   -16674.021            0   -13981.859    325.04538 
    1000    298.14963   -16701.663            0   -14036.369     356.0601 
Loop time of 53.3181 on 2 procs for 1000 steps with 4500 atoms

Performance: 3.241 ns/day, 7.405 hours/ns, 18.755 timesteps/s
97.3% CPU use with 2 MPI tasks x 1 OpenMP threads

MPI task timing breakdown:
Section |  min time  |  avg time  |  max time  |%varavg| %total
---------------------------------------------------------------
Pair    | 28.831     | 29.365     | 29.899     |   9.9 | 55.07
Bond    | 0.00097084 | 0.0010794  | 0.001188   |   0.3 |  0.00
Kspace  | 7.3086     | 7.8356     | 8.3626     |  18.8 | 14.70
Neigh   | 3.7241     | 3.7245     | 3.7248     |   0.0 |  6.99
Comm    | 0.32839    | 0.33495    | 0.34151    |   1.1 |  0.63
Output  | 0.00043344 | 0.0015392  | 0.002645   |   2.8 |  0.00
Modify  | 12.013     | 12.014     | 12.015     |   0.0 | 22.53
Other   |            | 0.04153    |            |       |  0.08

Nlocal:    2250 ave 2251 max 2249 min
Histogram: 1 0 0 0 0 0 0 0 0 1
Nghost:    16300 ave 16358 max 16242 min
Histogram: 1 0 0 0 0 0 0 0 0 1
Neighs:    1.301e+06 ave 1.31594e+06 max 1.28606e+06 min
Histogram: 1 0 0 0 0 0 0 0 0 1
FullNghs:  2.602e+06 ave 2.60923e+06 max 2.59476e+06 min
Histogram: 1 0 0 0 0 0 0 0 0 1

Total # of neighbors = 5203998
Ave neighs/atom = 1156.44
Ave special neighs/atom = 2
Neighbor list builds = 93
Dangerous builds = 0
Total wall time: 0:01:14
