LAMMPS (22 Sep 2017)
OMP_NUM_THREADS environment is not set. Defaulting to 1 thread. (../comm.cpp:90)
  using 1 OpenMP thread(s) per MPI task
# GCMC for CO2 molecular fluid, rigid/small/nvt dynamics
# Rigid CO2 TraPPE model
# [Potoff and J.I. Siepmann, Vapor-liquid equilibria of
# mixtures containing alkanes, carbon dioxide and
# nitrogen AIChE J., 47,1676-1682 (2001)].

# variables available on command line

variable        mu index -8.1
variable	disp index 0.5
variable        temp index 338.0
variable        lbox index 10.0
variable        spacing index 5.0

# global model settings

units           real
atom_style      full
boundary        p p p
pair_style      lj/cut/coul/long  14
pair_modify     mix arithmetic tail yes
kspace_style    ewald 0.0001
bond_style      harmonic
angle_style     harmonic

# box, start molecules on simple cubic lattice

lattice 	sc ${spacing}
lattice 	sc 5.0
Lattice spacing in x,y,z = 5 5 5
region          box block 0 ${lbox} 0 ${lbox} 0 ${lbox} units box
region          box block 0 10.0 0 ${lbox} 0 ${lbox} units box
region          box block 0 10.0 0 10.0 0 ${lbox} units box
region          box block 0 10.0 0 10.0 0 10.0 units box
create_box      2 box                                       bond/types 1                                angle/types 1                               extra/bond/per/atom 2                       extra/angle/per/atom 1                      extra/special/per/atom 2
Created orthogonal box = (0 0 0) to (10 10 10)
  1 by 2 by 2 MPI processor grid
molecule        co2mol CO2.txt
Read molecule co2mol:
  3 atoms with 2 types
  2 bonds with 1 types
  1 angles with 1 types
  0 dihedrals with 0 types
  0 impropers with 0 types
create_atoms   	0 box mol co2mol 464563 units box
Created 24 atoms
  Time spent = 0.00223303 secs

# rigid CO2 TraPPE model

pair_coeff      1   1  0.053649   2.8
pair_coeff      2   2  0.156973   3.05
bond_coeff      1       0       1.16
angle_coeff     1       0       180

# masses

mass 1 12.0107
mass 2 15.9994

# MD settings

group           co2 type 1 2
24 atoms in group co2
neighbor        2.0 bin
neigh_modify    every 1 delay 10 check yes
velocity       	all create ${temp} 54654
velocity       	all create 338.0 54654
timestep        1.0

# rigid constraints with thermostat

fix             myrigidnvt all rigid/nvt/small molecule temp ${temp} ${temp} 100 mol co2mol
fix             myrigidnvt all rigid/nvt/small molecule temp 338.0 ${temp} 100 mol co2mol
fix             myrigidnvt all rigid/nvt/small molecule temp 338.0 338.0 100 mol co2mol
8 rigid bodies with 24 atoms
  1.16 = max distance from body owner to body atom
fix_modify	myrigidnvt dynamic/dof no

# gcmc

variable        tfac equal 5.0/3.0 # (3 trans + 2 rot)/(3 trans)
fix             mygcmc all gcmc 100 100 0 0 54341 ${temp} ${mu} ${disp} mol                 co2mol tfac_insert ${tfac} group co2 rigid myrigidnvt
fix             mygcmc all gcmc 100 100 0 0 54341 338.0 ${mu} ${disp} mol                 co2mol tfac_insert ${tfac} group co2 rigid myrigidnvt
fix             mygcmc all gcmc 100 100 0 0 54341 338.0 -8.1 ${disp} mol                 co2mol tfac_insert ${tfac} group co2 rigid myrigidnvt
fix             mygcmc all gcmc 100 100 0 0 54341 338.0 -8.1 0.5 mol                 co2mol tfac_insert ${tfac} group co2 rigid myrigidnvt
fix             mygcmc all gcmc 100 100 0 0 54341 338.0 -8.1 0.5 mol                 co2mol tfac_insert 1.66666666666667 group co2 rigid myrigidnvt

# atom counts

variable 	carbon atom "type==1"
variable        oxygen atom "type==2"
group 		carbon dynamic all var carbon
dynamic group carbon defined
group 	        oxygen dynamic all var oxygen
dynamic group oxygen defined
variable        nC equal count(carbon)
variable        nO equal count(oxygen)

# output

variable	tacc equal f_mygcmc[2]/(f_mygcmc[1]+0.1)
variable	iacc equal f_mygcmc[4]/(f_mygcmc[3]+0.1)
variable	dacc equal f_mygcmc[6]/(f_mygcmc[5]+0.1)
variable	racc equal f_mygcmc[8]/(f_mygcmc[7]+0.1)
compute_modify  thermo_temp dynamic/dof yes
thermo_style    custom step temp press pe ke density atoms v_iacc v_dacc v_tacc v_racc v_nC v_nO
thermo          1000

# run

run             20000
Ewald initialization ...
WARNING: Using 12-bit tables for long-range coulomb (../kspace.cpp:321)
  G vector (1/distance) = 0.164636
  estimated absolute RMS force accuracy = 0.0332064
  estimated relative force accuracy = 0.0001
  KSpace vectors: actual max1d max3d = 16 2 62
                  kxmax kymax kzmax  = 2 2 2
WARNING: Fix gcmc using full_energy option (../fix_gcmc.cpp:445)
0 atoms in group FixGCMC:gcmc_exclusion_group:mygcmc
0 atoms in group FixGCMC:rotation_gas_atoms:mygcmc
WARNING: Neighbor exclusions used with KSpace solver may give inconsistent Coulombic energies (../neighbor.cpp:476)
Neighbor list info ...
  update every 1 steps, delay 10 steps, check yes
  max neighbors/atom: 2000, page size: 100000
  master list distance cutoff = 16
  ghost atom cutoff = 16
  binsize = 8, bins = 2 2 2
  1 neighbor lists, perpetual/occasional/extra = 1 0 0
  (1) pair lj/cut/coul/long, perpetual
      attributes: half, newton on
      pair build: half/bin/newton
      stencil: half/bin/3d/newton
      bin: standard
Per MPI rank memory allocation (min/avg/max) = 15.41 | 15.41 | 15.41 Mbytes
Step Temp Press PotEng KinEng Density Atoms v_iacc v_dacc v_tacc v_racc v_nC v_nO 
       0    386.52184    23582.465   -3.2433417    14.209828    0.5846359       24            0            0            0            0            8           16 
WARNING: Using kspace solver on system with no charge (../kspace.cpp:289)
    1000    335.66829   -3.7743052   -4.6268612    7.3374649   0.36539744       15   0.20601899   0.20787963            0            0            5           10 
    2000    459.73529    238.91592  -0.42937831    5.4815343   0.21923846        9   0.30392058   0.30105616            0            0            3            6 
    3000    255.47773   -479.67802   -36.850434    15.738299   0.95003334       39   0.22220744    0.2197582            0            0           13           26 
    4000    182.70803   -1059.2265    -43.04484    12.163134    1.0231128       42   0.16781689   0.16716177            0            0           14           28 
    5000    234.00901   -1821.0459   -46.047939    15.578313    1.0231128       42   0.13498091   0.13704201            0            0           14           28 
    6000    163.42358   -774.64962   -49.686149    11.691232    1.0961923       45   0.11401677   0.11296973            0            0           15           30 
    7000    171.36765   -359.28792    -49.34022    12.259546    1.0961923       45  0.098302308  0.098552065            0            0           15           30 
    8000     215.2905   -905.73479   -38.206404    13.262629   0.95003334       39  0.086608098  0.086135456            0            0           13           26 
    9000    185.19905   -2320.8255   -52.964346    13.249037    1.0961923       45  0.077379246  0.077059206            0            0           15           30 
   10000     241.5783   -1410.8134    -51.37248    17.282377    1.0961923       45  0.069600048  0.069395413            0            0           15           30 
   11000    153.38332   -2647.9572   -53.967244    10.972957    1.0961923       45  0.063207938   0.06315287            0            0           15           30 
   12000    188.93059   -1639.9304   -52.218219    13.515989    1.0961923       45   0.05816163  0.058001715            0            0           15           30 
   13000    243.39974   -1127.2881    -44.54519    16.203468    1.0231128       42  0.053682268  0.053700858            0            0           14           28 
   14000    200.88474   -272.11992   -41.725507    13.373183    1.0231128       42  0.050212054  0.050071222            0            0           14           28 
   15000     204.6505   -1616.9057   -44.631997    13.623875    1.0231128       42  0.046944632  0.046920585            0            0           14           28 
   16000    169.22546    105.40991    -42.46103     11.26558    1.0231128       42  0.044460451  0.044287314            0            0           14           28 
   17000    163.55389   -783.34837   -36.841459    10.075477   0.95003334       39  0.042304052  0.042283048            0            0           13           26 
   18000    499.48334   -503.24838     -8.94456    15.881226   0.51155641       21   0.04035334  0.040870565            0            0            7           14 
   19000    658.81004    391.68747   -2.6979013     11.12813   0.29231795       12  0.055391781  0.056188676            0            0            4            8 
   20000    489.87356   -122.40743   -13.636951     18.00938    0.5846359       24  0.061378424  0.061821941            0            0            8           16 
Loop time of 17.1274 on 4 procs for 20000 steps with 24 atoms

Performance: 100.891 ns/day, 0.238 hours/ns, 1167.718 timesteps/s
99.7% CPU use with 4 MPI tasks x 1 OpenMP threads

MPI task timing breakdown:
Section |  min time  |  avg time  |  max time  |%varavg| %total
---------------------------------------------------------------
Pair    | 0.81646    | 1.1504     | 1.4937     |  23.0 |  6.72
Bond    | 0.011878   | 0.012255   | 0.013296   |   0.5 |  0.07
Kspace  | 0.23802    | 0.58086    | 0.91304    |  32.3 |  3.39
Neigh   | 0.04321    | 0.043291   | 0.043372   |   0.0 |  0.25
Comm    | 0.90855    | 0.90959    | 0.91112    |   0.1 |  5.31
Output  | 0.0011697  | 0.0012506  | 0.001482   |   0.4 |  0.01
Modify  | 14.362     | 14.365     | 14.367     |   0.1 | 83.87
Other   |            | 0.06436    |            |       |  0.38

Nlocal:    6 ave 8 max 4 min
Histogram: 1 0 1 0 0 0 0 1 0 1
Nghost:    1465.25 ave 1556 max 1376 min
Histogram: 1 0 1 0 0 0 0 1 0 1
Neighs:    1243.5 ave 1726 max 748 min
Histogram: 1 0 0 1 0 0 1 0 0 1

Total # of neighbors = 4974
Ave neighs/atom = 207.25
Ave special neighs/atom = 2
Neighbor list builds = 20375
Dangerous builds = 0

Total wall time: 0:00:17
