LAMMPS (22 Sep 2017)
OMP_NUM_THREADS environment is not set. Defaulting to 1 thread. (../comm.cpp:90)
  using 1 OpenMP thread(s) per MPI task
# fix gcmc example with fix shake

# variables available on command line

variable        mu index -8.1
variable	disp index 0.5
variable        temp index 338.0
variable        lbox index 10.0
variable        spacing index 5.0

# global model settings

units           real
atom_style      full
boundary        p p p
pair_style      lj/cut/coul/long  14
pair_modify     mix arithmetic tail yes
kspace_style    ewald 0.0001
bond_style      harmonic
angle_style     harmonic

# box, start molecules on simple cubic lattice

lattice 	sc ${spacing}
lattice 	sc 5.0
Lattice spacing in x,y,z = 5 5 5
region          box block 0 ${lbox} 0 ${lbox} 0 ${lbox} units box
region          box block 0 10.0 0 ${lbox} 0 ${lbox} units box
region          box block 0 10.0 0 10.0 0 ${lbox} units box
region          box block 0 10.0 0 10.0 0 10.0 units box
create_box      2 box                                       bond/types 1                                angle/types 1                               extra/bond/per/atom 2                       extra/angle/per/atom 1                      extra/special/per/atom 2
Created orthogonal box = (0 0 0) to (10 10 10)
  1 by 2 by 2 MPI processor grid

# we can load multiple molecule templates, but don't have to use them all
molecule        co2mol CO2.txt
Read molecule co2mol:
  3 atoms with 2 types
  2 bonds with 1 types
  1 angles with 1 types
  0 dihedrals with 0 types
  0 impropers with 0 types
molecule        h2omol H2O.txt
Read molecule h2omol:
  3 atoms with 2 types
  2 bonds with 1 types
  1 angles with 1 types
  0 dihedrals with 0 types
  0 impropers with 0 types
create_atoms   	0 box mol h2omol 464563 units box
Created 24 atoms
  Time spent = 0.00236797 secs

# rigid SPC/E water model

pair_coeff      1 1 0.15535 3.166
pair_coeff      * 2 0.0000 0.0000

bond_coeff      1     1000       1.0
angle_coeff     1      100       109.47

# masses

mass 1 15.9994
mass 2 1.0

# MD settings

group           h2o type 1 2
24 atoms in group h2o
neighbor        2.0 bin
neigh_modify    every 1 delay 1 check yes
velocity       	all create ${temp} 54654
velocity       	all create 338.0 54654
timestep        1.0

minimize 0.0 0.0 100 1000
WARNING: Using 'neigh_modify every 1 delay 0 check yes' setting during minimization (../min.cpp:168)
Ewald initialization ...
WARNING: Using 12-bit tables for long-range coulomb (../kspace.cpp:321)
  G vector (1/distance) = 0.170448
  estimated absolute RMS force accuracy = 0.0332064
  estimated relative force accuracy = 0.0001
  KSpace vectors: actual max1d max3d = 16 2 62
                  kxmax kymax kzmax  = 2 2 2
Neighbor list info ...
  update every 1 steps, delay 0 steps, check yes
  max neighbors/atom: 2000, page size: 100000
  master list distance cutoff = 16
  ghost atom cutoff = 16
  binsize = 8, bins = 2 2 2
  1 neighbor lists, perpetual/occasional/extra = 1 0 0
  (1) pair lj/cut/coul/long, perpetual
      attributes: half, newton on
      pair build: half/bin/newton
      stencil: half/bin/3d/newton
      bin: standard
Per MPI rank memory allocation (min/avg/max) = 11.85 | 11.85 | 11.85 Mbytes
Step Temp E_pair E_mol TotEng Press 
       0          338   -4.9610706 9.2628112e-06    18.211756    730.90791 
     100          338   -15.815905   0.10936727    7.4662793   -278.75864 
Loop time of 0.0389402 on 4 procs for 100 steps with 24 atoms

99.0% CPU use with 4 MPI tasks x 1 OpenMP threads

Minimization stats:
  Stopping criterion = max iterations
  Energy initial, next-to-last, final = 
        -4.96106135393      -15.696637101     -15.7065379926
  Force two-norm initial, final = 15.474 4.38071
  Force max component initial, final = 5.80042 2.01432
  Final line search alpha, max atom move = 0.00468711 0.00944132
  Iterations, force evaluations = 100 346

MPI task timing breakdown:
Section |  min time  |  avg time  |  max time  |%varavg| %total
---------------------------------------------------------------
Pair    | 0.0067904  | 0.012084   | 0.019882   |   4.5 | 31.03
Bond    | 0.0001657  | 0.00019389 | 0.00022459 |   0.0 |  0.50
Kspace  | 0.0032685  | 0.010629   | 0.015032   |   4.4 | 27.30
Neigh   | 0          | 0          | 0          |   0.0 |  0.00
Comm    | 0.013826   | 0.014182   | 0.015051   |   0.4 | 36.42
Output  | 2.0027e-05 | 2.2769e-05 | 3.0994e-05 |   0.0 |  0.06
Modify  | 0          | 0          | 0          |   0.0 |  0.00
Other   |            | 0.001829   |            |       |  4.70

Nlocal:    6 ave 8 max 3 min
Histogram: 1 0 0 0 1 0 0 0 0 2
Nghost:    1722 ave 1725 max 1720 min
Histogram: 2 0 0 0 0 0 1 0 0 1
Neighs:    1256.75 ave 2101 max 667 min
Histogram: 1 0 1 0 1 0 0 0 0 1

Total # of neighbors = 5027
Ave neighs/atom = 209.458
Ave special neighs/atom = 2
Neighbor list builds = 0
Dangerous builds = 0
reset_timestep 0
# rigid constraints with thermostat

fix             mynvt all nvt temp ${temp} ${temp} 100
fix             mynvt all nvt temp 338.0 ${temp} 100
fix             mynvt all nvt temp 338.0 338.0 100
fix             wshake  all shake 0.0001 50 0 b 1 a 1 mol h2omol
  0 = # of size 2 clusters
  0 = # of size 3 clusters
  0 = # of size 4 clusters
  8 = # of frozen angles
# gcmc



run 1000
Ewald initialization ...
WARNING: Using 12-bit tables for long-range coulomb (../kspace.cpp:321)
  G vector (1/distance) = 0.170448
  estimated absolute RMS force accuracy = 0.0332064
  estimated relative force accuracy = 0.0001
  KSpace vectors: actual max1d max3d = 16 2 62
                  kxmax kymax kzmax  = 2 2 2
Per MPI rank memory allocation (min/avg/max) = 11.6 | 11.6 | 11.6 Mbytes
Step Temp E_pair E_mol TotEng Press 
       0    518.26667   -15.815905            0    7.3569121    -385.7767 
    1000    240.84589   -44.723106            0   -33.954368    61.365522 
Loop time of 0.0971818 on 4 procs for 1000 steps with 24 atoms

Performance: 889.055 ns/day, 0.027 hours/ns, 10289.993 timesteps/s
99.8% CPU use with 4 MPI tasks x 1 OpenMP threads

MPI task timing breakdown:
Section |  min time  |  avg time  |  max time  |%varavg| %total
---------------------------------------------------------------
Pair    | 0.010939   | 0.020819   | 0.033432   |   5.8 | 21.42
Bond    | 9.5129e-05 | 0.00010997 | 0.0001266  |   0.0 |  0.11
Kspace  | 0.0058987  | 0.017954   | 0.027383   |   5.9 | 18.47
Neigh   | 0.0018289  | 0.001851   | 0.0018759  |   0.0 |  1.90
Comm    | 0.033144   | 0.033717   | 0.034395   |   0.3 | 34.69
Output  | 1.3113e-05 | 1.6809e-05 | 2.5988e-05 |   0.0 |  0.02
Modify  | 0.020795   | 0.020843   | 0.020866   |   0.0 | 21.45
Other   |            | 0.001872   |            |       |  1.93

Nlocal:    6 ave 9 max 1 min
Histogram: 1 0 0 0 0 0 1 0 1 1
Nghost:    1375.25 ave 1495 max 1251 min
Histogram: 1 0 0 1 0 0 1 0 0 1
Neighs:    1263.25 ave 2045 max 122 min
Histogram: 1 0 0 0 0 0 2 0 0 1

Total # of neighbors = 5053
Ave neighs/atom = 210.542
Ave special neighs/atom = 2
Neighbor list builds = 30
Dangerous builds = 0

variable        tfac equal 5.0/3.0 # (3 trans + 2 rot)/(3 trans)
fix             mygcmc all gcmc 100 100 0 0 54341 ${temp} ${mu} ${disp} mol                 h2omol tfac_insert ${tfac} group h2o shake wshake
fix             mygcmc all gcmc 100 100 0 0 54341 338.0 ${mu} ${disp} mol                 h2omol tfac_insert ${tfac} group h2o shake wshake
fix             mygcmc all gcmc 100 100 0 0 54341 338.0 -8.1 ${disp} mol                 h2omol tfac_insert ${tfac} group h2o shake wshake
fix             mygcmc all gcmc 100 100 0 0 54341 338.0 -8.1 0.5 mol                 h2omol tfac_insert ${tfac} group h2o shake wshake
fix             mygcmc all gcmc 100 100 0 0 54341 338.0 -8.1 0.5 mol                 h2omol tfac_insert 1.66666666666667 group h2o shake wshake

# atom counts

variable 	oxygen atom "type==1"
variable 	hydrogen atom "type==2"
group 	        oxygen dynamic all var oxygen
dynamic group oxygen defined
group 		hydrogen dynamic all var hydrogen
dynamic group hydrogen defined
variable        nO equal count(oxygen)
variable        nH equal count(hydrogen)

# output

variable	tacc equal f_mygcmc[2]/(f_mygcmc[1]+0.1)
variable	iacc equal f_mygcmc[4]/(f_mygcmc[3]+0.1)
variable	dacc equal f_mygcmc[6]/(f_mygcmc[5]+0.1)
variable	racc equal f_mygcmc[8]/(f_mygcmc[7]+0.1)
compute_modify  thermo_temp dynamic/dof yes
thermo_style    custom step temp press pe ke density atoms v_iacc v_dacc v_tacc v_racc v_nO v_nH
thermo          1000

# run

run             20000
Ewald initialization ...
WARNING: Using 12-bit tables for long-range coulomb (../kspace.cpp:321)
  G vector (1/distance) = 0.170448
  estimated absolute RMS force accuracy = 0.0332064
  estimated relative force accuracy = 0.0001
  KSpace vectors: actual max1d max3d = 16 2 62
                  kxmax kymax kzmax  = 2 2 2
WARNING: Fix gcmc using full_energy option (../fix_gcmc.cpp:445)
0 atoms in group FixGCMC:gcmc_exclusion_group:mygcmc
0 atoms in group FixGCMC:rotation_gas_atoms:mygcmc
WARNING: Neighbor exclusions used with KSpace solver may give inconsistent Coulombic energies (../neighbor.cpp:476)
Per MPI rank memory allocation (min/avg/max) = 11.6 | 11.6 | 11.6 Mbytes
Step Temp Press PotEng KinEng Density Atoms v_iacc v_dacc v_tacc v_racc v_nO v_nH 
    1000    240.84589    61.724018   -44.723106    10.768738   0.23910963       24            0            0            0            0            8           16 
    2000    90.409434   -6561.5238   -333.25624    14.822134   0.83688372       84  0.050190725 0.0099581757            0            0           28           56 
    3000    67.305679   -341.32154   -396.19372    12.238152   0.92654983       93  0.030546787 0.0068755525            0            0           31           62 
    4000    70.339514   -2575.9146   -419.94752    13.628467   0.98632724       99  0.021303508 0.0046725853            0            0           33           66 
    5000    85.676845   -3904.0268   -427.45932    17.110889    1.0162159      102  0.016400775 0.0035209497            0            0           34           68 
    6000    55.817537   -2067.5498   -448.02732    11.147559    1.0162159      102  0.012996731 0.0028442566            0            0           34           68 
    7000     87.59123   -3931.0089    -442.0299    17.493219    1.0162159      102   0.01160439 0.0030159847            0            0           34           68 
    8000    77.695862   -1684.9299   -461.16897    15.980166    1.0461046      105  0.010174953 0.0025995783            0            0           35           70 
    9000    70.375873   -6250.5951   -467.15813    14.474621    1.0461046      105 0.0089594585  0.002260114            0            0           35           70 
   10000    85.004974   -3406.0315   -464.23871    17.483474    1.0461046      105  0.007938083 0.0020156323            0            0           35           70 
   11000    55.459986   -3437.3858   -470.38117    11.406782    1.0461046      105 0.0071412985 0.0018148454            0            0           35           70 
   12000     80.59057   -2145.2149    -464.5658    16.575538    1.0461046      105 0.0064840331 0.0016519521            0            0           35           70 
   13000    52.183725    -3956.875   -470.42779    10.732934    1.0461046      105 0.0059493315 0.0015128339            0            0           35           70 
   14000    78.482417   -4895.8977    -465.0452    16.141941    1.0461046      105  0.005490232 0.0013968431            0            0           35           70 
   15000    61.802226   -6148.8506   -469.41496    12.711228    1.0461046      105 0.0051077595 0.0012945729            0            0           35           70 
   16000     69.59917   -5755.4737   -462.37636    14.314872    1.0461046      105  0.004761212 0.0012098238            0            0           35           70 
   17000     78.44382   -4103.8449    -461.5505    16.134003    1.0461046      105 0.0044719941 0.0011320612            0            0           35           70 
   18000     76.04971   -3994.5995   -464.26842    15.641592    1.0461046      105 0.0042070328 0.0010659592            0            0           35           70 
   19000    70.676514    -4558.507   -463.40477    14.536455    1.0461046      105 0.0039804956 0.0010049017            0            0           35           70 
   20000    79.682951   -3876.5977   -462.70391    16.388862    1.0461046      105 0.0037779014 0.00095025921            0            0           35           70 
   21000    56.755378   -4224.8128   -465.66199    11.673213    1.0461046      105 0.0035881233 0.00090297077            0            0           35           70 
Loop time of 63.5274 on 4 procs for 20000 steps with 105 atoms

Performance: 27.201 ns/day, 0.882 hours/ns, 314.825 timesteps/s
99.5% CPU use with 4 MPI tasks x 1 OpenMP threads

MPI task timing breakdown:
Section |  min time  |  avg time  |  max time  |%varavg| %total
---------------------------------------------------------------
Pair    | 6.7399     | 8.4644     | 10.565     |  49.0 | 13.32
Bond    | 0.021824   | 0.024522   | 0.0278     |   1.4 |  0.04
Kspace  | 0.47207    | 2.5646     | 4.286      |  88.8 |  4.04
Neigh   | 0.25299    | 0.2535     | 0.25374    |   0.1 |  0.40
Comm    | 2.011      | 2.0187     | 2.0311     |   0.5 |  3.18
Output  | 0.00063848 | 0.00072688 | 0.00099015 |   0.0 |  0.00
Modify  | 50.025     | 50.035     | 50.051     |   0.1 | 78.76
Other   |            | 0.166      |            |       |  0.26

Nlocal:    26.25 ave 30 max 24 min
Histogram: 1 1 0 1 0 0 0 0 0 1
Nghost:    5965 ave 6026 max 5911 min
Histogram: 1 0 0 1 0 1 0 0 0 1
Neighs:    23614.8 ave 29343 max 16281 min
Histogram: 1 0 0 0 0 1 1 0 0 1

Total # of neighbors = 94459
Ave neighs/atom = 899.61
Ave special neighs/atom = 2
Neighbor list builds = 20437
Dangerous builds = 0

Total wall time: 0:01:03
