LAMMPS (24 Aug 2020)
# created by fftool

units real
boundary p p p

atom_style full
bond_style harmonic
angle_style harmonic
dihedral_style opls

special_bonds lj/coul 0.0 0.0 0.5

pair_style hybrid/overlay lj/cut/coul/long 8.0 8.0 thole 2.600 8.0 coul/tt 4 8.0
pair_modify tail yes
kspace_style pppm 1.0e-5

read_data data.ethylene_glycol
Reading data file ...
  orthogonal box = (0.0000000 0.0000000 0.0000000) to (35.000000 35.000000 35.000000)
  1 by 1 by 1 MPI processor grid
  reading atoms ...
  2800 atoms
  scanning bonds ...
  2 = max bonds/atom
  scanning angles ...
  6 = max angles/atom
  scanning dihedrals ...
  9 = max dihedrals/atom
  reading bonds ...
  2600 bonds
  reading angles ...
  2800 angles
  reading dihedrals ...
  3000 dihedrals
Finding 1-2 1-3 1-4 neighbors ...
  special bond factors lj:    0.0      0.0      0.5     
  special bond factors coul:  0.0      0.0      0.5     
     5 = max # of 1-2 neighbors
     6 = max # of 1-3 neighbors
    10 = max # of 1-4 neighbors
    13 = max # of special neighbors
  special bonds CPU = 0.001 seconds
  read_data CPU = 0.012 seconds

pair_coeff    1    1 lj/cut/coul/long     0.057289     3.500000  # CTO CTO ~
pair_coeff    1    2 lj/cut/coul/long     0.091945     3.304542  # CTO OHG ~
pair_coeff    1    3 lj/cut/coul/long     0.038625     2.958040  # CTO H1O ~
pair_coeff    1    4 lj/cut/coul/long     0.000000     0.000000  # CTO HOG ~
pair_coeff    2    2 lj/cut/coul/long     0.147565     3.120000  # OHG OHG ~
pair_coeff    2    3 lj/cut/coul/long     0.061990     2.792848  # OHG H1O ~
pair_coeff    2    4 lj/cut/coul/long     0.000000     0.000000  # OHG HOG ~
pair_coeff    3    3 lj/cut/coul/long     0.026041     2.500000  # H1O H1O ~
pair_coeff    3    4 lj/cut/coul/long     0.000000     0.000000  # H1O HOG ~
pair_coeff    4    4 lj/cut/coul/long     0.000000     0.000000  # HOG HOG ~
pair_coeff    *   5* lj/cut/coul/long     0.000000     0.000000
pair_coeff    1    1 thole   1.662
pair_coeff    1    2 thole   1.561
pair_coeff    1    5 thole   1.662
pair_coeff    1    6 thole   1.561
pair_coeff    2    2 thole   1.467
pair_coeff    2    5 thole   1.561
pair_coeff    2    6 thole   1.467
pair_coeff    5    5 thole   1.662
pair_coeff    5    6 thole   1.561
pair_coeff    6    6 thole   1.467
pair_coeff    2    4 coul/tt  4.5 1.0
pair_coeff    4    6 coul/tt  4.5 1.0
pair_coeff    1    4 coul/tt  4.5 1.0
pair_coeff    4    5 coul/tt  4.5 1.0

group ATOMS type 1 2 3 4
2000 atoms in group ATOMS
group CORES type 1 2
800 atoms in group CORES
group DRUDES type 5 6
800 atoms in group DRUDES

fix DRUDE all drude C C N N D D

fix SHAKE ATOMS shake 0.0001 20 0 b 3 4
     400 = # of size 2 clusters
     400 = # of size 3 clusters
       0 = # of size 4 clusters
       0 = # of frozen angles
  find clusters CPU = 0.001 seconds

neighbor 2.0 bin

timestep 1.0

variable TK equal 298.0
variable TDK equal 1.0
variable PBAR equal 1.0

comm_modify vel yes
velocity ATOMS create ${TK} 12345
velocity ATOMS create 298 12345

compute TATOM ATOMS temp
compute TDRUDE all temp/drude

fix DTDIR all drude/transform/direct
fix TSTAT ATOMS npt temp ${TK} ${TK} 200 iso ${PBAR} ${PBAR} 1000
fix TSTAT ATOMS npt temp 298 ${TK} 200 iso ${PBAR} ${PBAR} 1000
fix TSTAT ATOMS npt temp 298 298 200 iso ${PBAR} ${PBAR} 1000
fix TSTAT ATOMS npt temp 298 298 200 iso 1 ${PBAR} 1000
fix TSTAT ATOMS npt temp 298 298 200 iso 1 1 1000
fix_modify TSTAT temp TATOM press thermo_press
WARNING: Temperature for fix modify is not for group all (../fix_nh.cpp:1428)
fix TSTDR DRUDES nvt temp ${TDK} ${TDK} 50
fix TSTDR DRUDES nvt temp 1 ${TDK} 50
fix TSTDR DRUDES nvt temp 1 1 50
fix DTINV all drude/transform/inverse

fix ICECUBE all momentum 1000 linear 1 1 1

thermo_style custom step time cpu etotal ke pe ebond eangle evdwl ecoul elong   press vol density c_TATOM c_TDRUDE[1] c_TDRUDE[2]
thermo 10

run 2000
PPPM initialization ...
  using 12-bit tables for long-range coulomb (../kspace.cpp:328)
  G vector (1/distance) = 0.41206781
  grid = 54 54 54
  stencil order = 5
  estimated absolute RMS force accuracy = 0.0040479865
  estimated relative force accuracy = 1.2190391e-05
  using double precision KISS FFT
  3d grid and FFT values/proc = 250047 157464
Rebuild special list taking Drude particles into account
Old max number of 1-2 to 1-4 neighbors: 13
New max number of 1-2 to 1-4 neighbors: 13 (+0)
Neighbor list info ...
  update every 1 steps, delay 10 steps, check yes
  max neighbors/atom: 2000, page size: 100000
  master list distance cutoff = 10
  ghost atom cutoff = 10
  binsize = 5, bins = 7 7 7
  3 neighbor lists, perpetual/occasional/extra = 3 0 0
  (1) pair lj/cut/coul/long, perpetual
      attributes: half, newton on
      pair build: half/bin/newton
      stencil: half/bin/3d/newton
      bin: standard
  (2) pair thole, perpetual, skip from (1)
      attributes: half, newton on
      pair build: skip
      stencil: none
      bin: none
  (3) pair coul/tt, perpetual, skip from (1)
      attributes: half, newton on
      pair build: skip
      stencil: none
      bin: none
Per MPI rank memory allocation (min/avg/max) = 39.43 | 39.43 | 39.43 Mbytes
Step Time CPU TotEng KinEng PotEng E_bond E_angle E_vdwl E_coul E_long Press Volume Density c_TATOM c_TDRUDE[1] c_TDRUDE[2] 
       0            0            0    2707.9246     1420.362    1287.5627    1474.8647    30.734202   -461.31379    540022.21   -539778.93   -9408.4231        42875   0.48077588          298    294.34401    6.9394757 
      10           10   0.66722703    1866.1234    1294.3904    571.73299    570.18548    421.90708   -480.70585    539943.81   -539929.74    805.31575    42854.367   0.48100736    216.74278    221.57505    99.651373 
      20           20    1.3338492    1639.4254     1025.541    613.88439    440.75582    630.81291   -511.62082    539884.11   -539931.54    3547.7591    42831.812   0.48126066     189.9745    191.41076    47.238176 
      30           30    2.0093691    1509.2246    1199.5696    309.65502    372.66235    422.42807   -441.22393    539785.92   -539996.76   -2255.2097    42822.727   0.48136275    232.23532    234.10184    34.834744 
      40           40     2.694386    1447.7122    1208.8207    238.89145    301.47584    466.79595   -415.52093    539713.64   -540015.07   -2983.4666    42805.664   0.48155464    240.97408    243.39825    20.121373 
      50           50    3.3607922    1418.4665     1249.502    168.96453    309.99547    480.01554   -495.04808    539716.53   -540017.02    3344.2849    42776.949   0.48187789    252.07241    255.56807    12.841402 
      60           60    4.0487151    1401.9374    1239.9607    161.97672    467.90054    298.63561   -481.19864    539718.72   -540016.73    6314.7204     42763.12   0.48203372    251.90217    255.43544    9.1055211 
      70           70    4.7337511    1396.4535    1021.9568    374.49665    585.05591    367.14909   -436.69254    539677.13   -540007.02   -9573.8028    42770.007    0.4819561    207.52883    210.90348    6.7497278 
      80           80     5.435864    1388.5232     1234.429    154.09425       291.38    446.20262   -454.21016    539690.22   -540020.29   -2596.4424    42743.245   0.48225786    251.84239    256.22625    5.2041745 
      90           90    6.1335561    1390.1275    1165.6307    224.49675    292.42637    610.78166     -509.169    539648.43   -540009.54    2755.6801    42701.879   0.48272503    239.29515    242.40904    3.9881049 
     100          100    6.8105361     1391.631    1287.2692    104.36183    333.86635    427.43215   -456.38003    539638.17   -540023.61   -3962.1785    42668.283   0.48310512    265.74273    268.23371     3.347745 
     110          110    7.5044641    1392.4961    1128.7784    263.71763    341.80093    547.86434   -397.70381    539615.87   -540033.75   -5131.6566      42619.2   0.48366149    231.88962    235.24089    2.8704355 
     120          120     8.184123    1391.2913    1316.2525    75.038706    302.07873    445.61483   -439.78763    539603.43   -540019.07    376.35789    42547.904   0.48447195    270.46432    274.66659    2.6361333 
     130          130    8.8712091    1400.0626     1131.989    268.07364    519.48714     417.6662   -431.15047    539616.71   -540036.69    8538.0622    42480.874   0.48523639    233.04019    236.40124    1.8960578 
     140          140    9.5497742    1404.1881    1334.9133    69.274795    389.42101    393.34067   -367.29241    539507.94    -540028.8   -4426.6648    42444.674   0.48565024    275.02782    279.10558    1.5835282 
     150          150    10.242218    1404.7862    1334.1949    70.591327    285.69316    480.49153   -340.69071    539518.01   -540045.75   -2082.9187    42395.713   0.48621109    274.19438     278.9463    1.6008208 
     160          160    10.935114    1412.6555     1291.707    120.94846    348.76035    575.18871   -418.38779    539483.99   -540034.49    5790.6824    42339.303   0.48685889    266.64535     270.1669    1.3423668 
     170          170    11.610989    1417.1464    1394.9631    22.183375    347.96719    497.00845   -398.67453    539439.29   -540027.81   -2071.8927    42303.603   0.48726974     288.3889    291.92774    1.1210291 
     180          180    12.289061    1420.2158    1260.1514    160.06435    383.67659    547.79959   -344.95473    539442.15   -540043.12   -5707.9246    42261.493   0.48775527    259.80397    263.64509    1.1531951 
     190          190    12.958536    1419.3668    1375.1626    44.204188     383.7187    500.13274   -378.41788    539388.43   -540024.18   -3451.5083    42194.665   0.48852777    283.36482    287.66025    1.3527016 
     200          200    13.633367    1425.8199    1378.4982    47.321725    460.35816     459.3409   -415.44782    539411.67    -540044.6    6205.8015    42117.045   0.48942811    284.32246    288.46225    1.1474796 
     210          210    14.311682    1432.8476     1458.746   -25.898458    348.39196    519.78477   -364.59687    539324.82   -540036.04   -2670.2453    42061.074    0.4900794    300.62024    305.40697   0.90989585 
     220          220    14.989255    1433.9236    1316.4386    117.48502    361.73263    586.07085   -288.11281    539309.49   -540044.33   -3665.7218    41997.584   0.49082028    270.93116    275.42919    1.1889667 
     230          230    15.654224    1439.0048    1526.3478   -87.342964    396.76966    419.31407   -364.67912    539312.78   -540045.43    7360.3014    41924.153   0.49167997    315.32585     319.5731   0.92637077 
     240          240     16.34516    1447.1229    1465.5412    -18.41826    387.84589    555.89046   -357.40376    539236.35   -540033.29    1804.1536    41878.572   0.49221511    302.34061    306.96246   0.64845084 
     250          250    17.011375    1451.5312    1408.0792    43.451972    376.36312    598.22556   -302.55742    539235.03    -540053.8   -3523.5226    41843.302   0.49263001    290.29737    294.90587   0.66500287 
     260          260    17.722074     1451.912    1486.9382   -35.026201    439.39663     496.5383   -294.82208    539179.22   -540041.63   -3359.5383    41794.408   0.49320632    306.86148    311.37488   0.79644143 
     270          270    18.416089    1455.7826     1489.843   -34.060455    384.68473      584.319   -345.52517     539213.2   -540050.09    4219.7839    41735.543   0.49390195    307.50271    312.00088   0.76256308 
     280          280    19.086374    1459.6904    1557.7147    -98.02431    363.40631    544.03097   -338.56088    539195.96   -540044.55    -1927.559    41691.464   0.49442413    321.11857    326.30138   0.62349318 
     290          290    19.776339    1458.5631    1502.6363   -44.073109    468.84588    480.27988   -273.91331    539154.14   -540045.25   -6405.1657    41640.349   0.49503106    309.96991     314.6214    0.8863505 
     300          300    20.460839    1460.3318    1532.4499    -72.11807    394.63947    561.19448   -334.56112    539192.83   -540050.12    4984.7237    41569.486   0.49587494    316.03907    320.88618   0.85911384 
     310          310    21.167455      1465.72    1493.2202   -27.500152    413.70603    630.92769   -345.49766    539150.28   -540033.83    3577.7209    41517.391   0.49649714     307.6908    312.80394   0.57266047 
     320          320    21.849908    1465.4882    1660.5838   -195.09555    367.20336     477.5937   -303.61685    539152.63   -540037.91   -1201.1197    41482.202   0.49691832    342.85705    347.89093   0.58244644 
     330          330    22.545706    1465.9528    1506.4911   -40.538288     425.9134    568.10101   -249.05186    539108.47   -540033.08   -1066.8372    41444.504   0.49737031    310.75826    315.56281   0.62005138 
     340          340    23.236471     1465.941    1557.6335   -91.692439    381.97546    625.89135   -296.40185    539081.74   -540030.48    4892.9571    41406.266   0.49782962    321.30678    326.29483   0.60253345 
     350          350    23.918806    1465.3219    1564.1522   -98.830312    418.42988    585.96966   -296.62497    539077.24   -540036.78    740.62795    41386.895   0.49806264     322.5576    327.69246   0.54088855 
     360          360    24.618034    1462.6063    1545.8716   -83.265302    514.18386    506.65245   -255.48504    539024.01   -540031.84   -7180.5551    41369.254   0.49827502    319.00119    323.79976   0.66034847 
     370          370    25.302386    1458.1673     1587.936   -129.76865    389.00162    580.31809   -293.01759    539062.35   -540044.02    1831.7475    41328.293   0.49876887    327.28902    332.55426   0.79099725 
     380          380    25.979058    1456.1242    1571.9673   -115.84304    389.73109    617.48838     -335.789    539071.87   -540039.48    3128.4244    41293.128   0.49919361    324.14157    329.21858    0.7658851 
     390          390    26.672543    1451.8986    1566.3578   -114.45925    409.58196    595.32553   -323.84183    539065.42   -540042.85   -2047.1954    41270.538   0.49946685    323.40592    328.06089   0.72893881 
     400          400     27.35931    1446.0614    1528.7698   -82.708453    414.47026    582.41586   -279.89484    539064.81   -540045.35   -1758.0676    41241.935   0.49981326    314.95109      320.111   0.86625159 
     410          410    28.041399    1440.2005    1651.8206   -211.62014    396.56866    533.57277   -312.80562    539046.01   -540042.07    4444.0299    41209.153   0.50021086    340.44948    345.87957   0.93036258 
     420          420    28.713939     1435.656    1554.4533   -118.79733    454.51792    576.06635   -316.30708    539049.51   -540045.56    3709.2547    41194.366   0.50039042    320.18642    325.47663   0.90533533 
     430          430    29.408968    1427.9462    1634.1145   -206.16837    461.69825    552.56741   -278.82495    538945.66   -540038.11   -5309.7858    41192.427   0.50041397    336.91486    342.13346   0.99752021 
     440          440    30.100174    1419.5461    1581.5128   -161.96678    418.66024    618.71093   -258.37983    538949.14   -540039.04    -45.04328    41173.678   0.50064185    325.71366    331.04339    1.1192027 
     450          450    30.781165    1411.6642     1569.329   -157.66479     380.5392    668.12618   -290.80879    538968.32   -540032.63    3122.7195    41154.153   0.50087936    323.38298    328.46291    1.1708776 
     460          460    31.469372    1402.5342    1627.6241   -225.08988    452.16964    578.69178   -298.30865    538927.93   -540030.11   -2417.9663     41145.38   0.50098617    335.42073     340.6408    1.2610836 
     470          470    32.141833    1393.2235    1617.2654   -224.04193    436.17938    569.79398   -278.51398    538933.88   -540035.19   -3103.9764    41128.379   0.50119325    333.09846    338.43145    1.3358906 
     480          480     32.83543     1384.531    1583.0622   -198.53121    460.65928     603.4034   -285.16458    538894.86   -540025.61    2315.2361    41100.553   0.50153257    325.89657     331.2085    1.4386937 
     490          490    33.512115      1375.67    1607.7541   -232.08412    478.08234    546.08252   -283.67189    538902.39   -540031.79    4472.5623    41082.804   0.50174925    331.38058    336.42849    1.3532614 
     500          500    34.196416    1366.0184    1653.6253   -287.60684    433.23462    598.37595   -281.95588    538837.43   -540025.77   -2921.0303    41080.823   0.50177344    340.53146    346.03623    1.3738058 
     510          510    34.887821    1356.1779    1625.4002   -269.22226    430.87286    614.37995   -274.02401    538850.24   -540029.11   -514.74733    41070.411   0.50190065    334.53988    340.10337    1.4033675 
     520          520    35.568482    1345.9827    1672.4342   -326.45149     410.4373     589.2259   -300.56391    538873.36   -540022.33    3422.9813    41058.601   0.50204502    344.75101    349.98437    1.3650429 
     530          530    36.253272    1335.9927    1610.2975   -274.30488    453.70829    630.07813   -307.15541    538849.89   -540018.01   -1600.1663      41058.3   0.50204869    331.45878     337.0013    1.2742094 
     540          540    36.929745    1325.3294    1622.7984     -297.469    467.07173     565.4329   -284.76737     538855.1   -540019.63   -3638.1511    41052.407   0.50212076    334.15385    339.62281    1.2734042 
     550          550    37.614929    1314.4624     1651.384   -336.92166    462.50602    578.49325   -284.70593    538808.93   -540016.13   -518.81114    41032.511   0.50236424    340.18663    345.64979    1.2068283 
     560          560     38.30281    1304.2946    1656.2572   -351.96261    418.38161     608.4185    -267.1651    538789.68   -540024.32    2812.5749    41011.222   0.50262501    341.36439    346.71837    1.1132402 
     570          570    38.968509    1294.0662     1610.486   -316.41984    441.76639    648.31424   -262.28744    538733.02   -540018.02   -1538.0916    40999.307   0.50277108    332.02722    337.14618    1.0635153 
     580          580    39.660802    1282.4498    1645.1489   -362.69914      440.312    580.63775   -236.68981    538736.22   -540024.85   -1101.4796    40982.995    0.5029712    339.24699    344.41338    1.0649616 
     590          590    40.334129    1272.0795    1684.9413   -412.86188    426.59194    579.83264   -250.92442    538728.51   -540026.41    3972.8154     40964.39   0.50319963    347.39845    352.81566   0.94731087 
     600          600    41.048102    1260.9835    1675.1026   -414.11911    426.30246    601.64923   -277.06881    538735.77   -540019.69    734.00273     40959.91   0.50325467    345.32911    350.76428   0.92422584 
     610          610    41.741513    1249.4376    1680.3024   -430.86481    461.98359    568.49567   -279.15072    538732.86   -540020.22   -2637.0497    40958.819   0.50326807    346.51864    351.86938   0.89455213 
     620          620    42.414478    1238.2494    1639.0994   -400.84996    462.30623    648.97497   -282.29483    538686.98   -540016.57   -1273.3337    40948.025   0.50340073    338.09346    343.23931   0.87622789 
     630          630    43.097268    1226.2206    1700.4438   -474.22316    415.44158    626.06093   -284.76848       538701   -540024.65    1189.5467    40932.531   0.50359129    350.55412     356.1328   0.81396661 
     640          640    43.788412    1213.6718    1722.5963   -508.92448    451.75966    596.15589   -304.19314    538680.78   -540025.33   -2040.5889    40920.034   0.50374508    355.17542    360.78185   0.80550146 
     650          650    44.479798    1200.5286    1712.0582   -511.52952    468.57523     555.5853    -284.3835    538686.81   -540030.87   -3241.3366    40899.599   0.50399677    352.98515    358.55291   0.84422259 
     660          660    45.146352    1188.0355    1686.7006   -498.66506    447.13788    623.79281   -277.27603    538662.78   -540036.48    2063.7513    40868.284   0.50438295    347.64044    353.23612   0.84411368 
     670          670    45.838863    1176.3202    1677.3379   -501.01775    432.39196    630.63662   -246.87422    538633.17   -540025.28    2018.5449    40844.222    0.5046801    345.92274    351.29625   0.79765142 
     680          680    46.514638    1164.0567    1637.5703   -473.51362    456.35969    620.04865   -220.51828    538603.75   -540020.31   -976.60074    40828.184   0.50487835    337.69799    342.97493   0.76377368 
     690          690    47.205994    1151.5359    1658.8065   -507.27065    455.18706    597.02897   -208.03899    538576.88    -540018.3    322.38087    40810.034   0.50510289    341.98818    347.41043   0.79815517 
     700          700    47.879878    1139.9903    1700.2911   -560.30078    435.98357     577.8242   -205.61874    538580.14    -540024.2    2000.2694     40793.74   0.50530463    350.58114    356.13628   0.74296449 
     710          710    48.568487     1128.264    1665.4723   -537.20835    463.76446    651.59115   -230.65333     538538.4   -540025.33   -509.61232    40784.629   0.50541752    343.46593     348.8134   0.78751508 
     720          720    49.264778      1115.93    1630.7565   -514.82652    506.53769    607.16471   -229.82851    538559.14   -540017.08   -3128.0993    40773.317   0.50555774    336.19023    341.52193   0.81241576 
     730          730     49.95434    1103.0861    1693.6547   -590.56861    449.96492    627.91156   -253.85501    538551.14   -540015.34    -149.3908    40751.076   0.50583366    349.00364    354.63214   0.96828585 
     740          740    50.640368    1090.6895    1721.0166   -630.32706    437.38184    606.18468    -248.9766    538542.64   -540008.25    1076.2201    40727.694   0.50612407    354.60708    360.37927   0.94820937 
     750          750    51.314864    1077.6264    1706.9939   -629.36751    477.34023    592.06785   -241.17012    538504.58   -540006.13   -978.20505    40707.892   0.50637027    351.96678    357.41563   0.99510839 
     760          760    52.004491    1064.8649    1670.3803   -605.51537     459.7133    621.11647   -220.34804    538486.12   -540007.66   -73.703028    40685.583   0.50664791    344.30042    349.72677    1.0189171 
     770          770    52.698124    1052.5063    1678.5504   -626.04408    429.49349    609.54654   -198.06479    538475.21   -540006.64    1856.6695     40663.69    0.5069207    345.71047    351.39771    1.1031709 
     780          780    53.371805    1040.7804    1626.9339   -586.15347    458.65937    625.17557   -235.68082    538504.32   -540009.28    1027.8021    40648.992   0.50710399    335.32101    340.58885    1.0755417 
     790          790     54.06492    1028.4288    1635.2234   -606.79463    456.80643    626.14821   -248.60698     538507.8   -540008.98   -1370.6148    40638.323   0.50723712    337.04528    342.28645    1.1565605 
     800          800    54.759088    1015.5035    1665.4981    -649.9946    445.78982    658.20045   -279.78518     538499.6    -540014.9   -1038.3661    40623.049   0.50742784    343.25371    348.62213    1.1808822 
     810          810    55.430872    1002.1533    1683.1796    -681.0263    440.51425    604.98532   -291.49462    538537.92    -540015.3   -572.09456    40603.508   0.50767205    346.94843    352.31225    1.2153414 
     820          820    56.132222    989.19583    1676.8671   -687.67123    454.16999    601.64035   -298.37645    538517.32   -540010.82   -2017.1523    40580.909   0.50795476    345.61042    350.97365    1.2453839 
     830          830    56.835319    975.79292    1648.0222    -672.2293     457.5301    647.03708   -301.93001    538500.55   -540019.28   -1480.1591    40550.766   0.50833234    339.56652    344.89673      1.30317 
     840          840    57.544934    962.33793    1667.0218   -704.68387     461.4571    596.28166   -279.37217    538495.66   -540014.25   -85.118365    40514.896    0.5087824    343.35846    348.86882    1.3264433 
     850          850    58.244995    949.54228     1632.642   -683.09972    476.42368    616.30295   -243.45149     538447.8   -540011.59    312.32904    40478.782   0.50923632    336.43492    341.68468    1.2775995 
     860          860    58.977497    936.00137    1687.8505   -751.84917    439.29154    594.43795   -220.43933    538410.93    -540014.7    216.93858    40444.448   0.50966862    347.70581    353.31273     1.173142 
     870          870    59.645842    922.54093    1696.9521   -774.41121    464.36431    609.38564   -208.02143    538341.43   -540014.72    440.34841    40411.634   0.51008247    349.86664    355.25009    1.1151612 
     880          880    60.427056    908.78777    1702.0807   -793.29291    457.46621    604.11808    -192.2501    538327.44   -540016.03    932.76309    40381.402   0.51046435    350.97927    356.34193    1.0821299 
     890          890    61.124637    895.35623    1641.4727   -746.11648    466.78456    622.86991   -207.04658    538334.95   -540003.51   -681.75697    40354.709   0.51080199    338.33159       343.67    1.0101072 
     900          900    61.901692    881.24944    1639.4923   -758.24291    481.38965    619.87748   -233.19912    538331.45   -540005.99     -1439.81    40325.857   0.51116746    337.88864    343.24606    1.0275191 
     910          910    62.611037    867.46519    1643.1706   -775.70543    468.68262    603.17181   -238.43462    538352.91   -540009.29   -275.79166    40292.103   0.51159568    338.76084    344.02955    1.0030087 
     920          920     63.34952    853.97988    1631.3965   -777.41663    474.85895    588.82562   -219.35163    538342.59   -540006.98   -62.754987    40257.288   0.51203811    336.31935    341.56634   0.99196885 
     930          930     64.05327    840.41362     1645.025   -804.61134    447.85382     587.9851   -225.01975    538339.75   -540002.74   -555.49599     40222.58   0.51247995    339.28553    344.44654   0.94664259 
     940          940    64.737005    827.76871    1587.5414    -759.7727    460.48307     621.8746   -235.65012    538344.69   -539999.26   -532.01637    40186.221   0.51294363    327.38945    332.41019   0.91368715 
     950          950    65.435712    815.02839     1620.017   -804.98861    444.11677    622.93832   -224.53373    538307.28   -539999.67    650.87188    40148.706   0.51342292    334.15908    339.24274   0.86718157 
     960          960     66.11542    802.59749    1600.8853   -798.28777    460.82761     618.5358   -204.94287    538277.13    -539994.5    565.08592    40114.076   0.51386616    330.04164    335.24039   0.84900019 
     970          970    66.809439    789.71165    1625.0356   -835.32393    453.24367    595.34881   -209.80467     538274.3    -539994.7   -429.65331    40082.097   0.51427613    335.12946    340.30347   0.85026333 
     980          980    67.498662    777.23625    1599.2221   -821.98582     483.6492    592.52689   -239.95014    538284.68    -539989.4   -679.87516    40049.163   0.51469904    329.80605    334.91604   0.80024747 
     990          990    68.171112    764.49736    1616.9152    -852.4178    451.24335    578.34889   -246.93614    538322.43   -539990.69   -725.77921    40014.039   0.51515084    333.41976    338.59959   0.85272294 
    1000         1000     68.87218     751.9616    1602.3648   -850.40319    440.44622    607.89023   -260.38007    538330.86   -539992.28   -655.41032    39976.561    0.5156338    330.28921    335.54624   0.85774711 
    1010         1010    69.568027    739.23622    1608.3162   -869.07993    453.37764    599.55478   -268.05724    538318.37   -539990.61   -944.18546    39936.822   0.51614688    331.62628    336.79124   0.86343714 
    1020         1020    70.254618    726.57563    1603.2801   -876.70451    456.00216    578.04019   -268.37136    538331.48   -539991.76   -993.19042    39894.008    0.5167008    330.49767    335.72146   0.89116772 
    1030         1030    70.948082    714.23534    1575.4792   -861.24391    451.11225     613.6829   -258.70217    538315.85   -539992.85   -68.576608     39848.35   0.51729283    324.82081    329.89207   0.89165001 
    1040         1040    71.625937    702.03201      1582.19   -880.15797    454.35428     589.4527   -240.85244    538303.75   -539994.97    481.43706    39803.185   0.51787981    326.24444    331.29664   0.89665812 
    1050         1050     72.32406    690.24009    1580.1335   -889.89337    456.92093     584.9166   -233.91929    538281.44   -539992.57    378.07746    39760.768   0.51843229    325.67839     330.8875   0.85252921 
    1060         1060    73.018665    678.51497    1597.2744   -918.75938    453.89954    588.83337   -207.40943    538217.01   -539993.07   -427.56213    39720.503   0.51895783    329.36068    334.49154    0.8324703 
    1070         1070     73.69195     667.1701     1572.006   -904.83588    469.26436     617.3996   -190.81473    538160.69   -539992.92   -149.00324     39679.76   0.51949069    323.89679    329.15189   0.91549703 
    1080         1080    74.379973    656.03284    1552.6284   -896.59552    480.37102    628.01048   -176.16118    538124.99   -539986.83    546.46409    39639.581   0.52001725     320.0459     325.1041   0.88510254 
    1090         1090    75.075322    644.48834    1576.1461   -931.65773    480.22631    619.23659   -162.58366    538087.88   -539982.49   -437.67421    39601.899   0.52051206    324.84815    330.02057    0.9142907 
    1100         1100    75.756475     632.4209    1593.3118   -960.89087    482.45504    608.42039   -163.65887    538082.06   -539983.01   -578.05159    39563.693    0.5210147    328.41403    333.58803   0.97778176 
    1110         1110    76.451658    620.59957    1621.2709   -1000.6713    462.34654    597.36158   -178.01016    538085.58   -539981.44    92.893727    39524.327   0.52153363    334.30034     339.4419     0.994688 
    1120         1120    77.112771    609.26906    1578.9905    -969.7214    476.02526    609.73579   -181.21969    538089.67   -539982.65    850.52248    39486.393   0.52203467    325.29851    330.57568   0.99687526 
    1130         1130    77.810811    597.88707    1585.8789   -987.99182    474.81174    577.09036   -169.33513    538094.06   -539984.81    598.20799    39452.503   0.52248309    326.74515    332.00355    1.0297772 
    1140         1140    78.483261    586.76532    1527.4079   -940.64257    499.41447    606.08942   -149.31526    538062.35   -539985.61     191.9565    39421.787    0.5228902    314.84428    319.75862   0.99988865 
    1150         1150      79.1787    575.92137    1526.5527   -950.63133    487.69353    602.90272   -136.67929    538056.12   -539988.86    1152.6101    39393.256    0.5232689    314.67331    319.57118    1.0161269 
    1160         1160    79.877159    565.47264    1537.2563   -971.78365    481.69021    580.59002   -138.67546    538064.65   -539982.48    909.08533     39369.59   0.52358346     316.6823    321.81622    1.0145894 
    1170         1170    80.551921    554.89258    1553.0806   -998.18798    474.92071    599.18052    -167.3488    538068.37    -539983.9    174.56373     39350.03   0.52384372     320.0432     325.0983    1.0863184 
    1180         1180    81.259112    544.05556    1571.6125   -1027.5569     473.0273    604.62324   -182.50623    538059.19   -539983.32   -431.85536    39331.619   0.52408893    323.77829    328.97386    1.1065558 
    1190         1190    81.934297    533.18824    1568.6122    -1035.424    480.56363    597.56584   -199.92235    538077.79   -539985.86   -123.11151    39312.288   0.52434664    323.20365    328.34663     1.102858 
    1200         1200    82.633486    521.74424    1599.1092   -1077.3649    467.32235    585.41422   -207.89385    538087.52   -539990.32    56.310132    39292.907   0.52460526    329.42204    334.72551    1.1339718 
    1210         1210    83.330124    510.28209    1605.7674   -1095.4853     486.1625    580.78312    -213.3055    538071.57   -539993.55   -269.03436    39273.954   0.52485843    330.74526    336.09358     1.189949 
    1220         1220    84.008808    498.50586    1636.8178   -1138.3119    493.88547     550.9317   -214.47737    538060.18    -539998.9    344.20965    39254.816   0.52511432     337.1548    342.61183    1.1743938 
    1230         1230    84.706245      486.665    1587.8095   -1101.1445    489.91197    610.48557   -192.26663    538003.31   -539993.82   -40.768231    39237.077   0.52535173    326.99705    332.34213     1.162246 
    1240         1240    85.381363    474.56427    1577.8915   -1103.3273    501.57535     576.4551   -182.65979     537998.5   -539990.92   -160.81029    39219.702   0.52558447    325.01538     330.2598    1.1677797 
    1250         1250     86.07477    462.11402    1599.9963   -1137.8823    490.25739    579.30129   -179.13521    537951.59   -539991.71     24.81579    39202.232   0.52581869    329.90742    334.91314    1.1307251 
    1260         1260    86.758837      450.158    1574.6752   -1124.5172    488.74275    611.97561   -172.62705    537912.89   -539991.88    151.27583     39185.28   0.52604615    324.35077    329.58626    1.1661208 
    1270         1270    87.447766     438.0952    1560.3925   -1122.2973     485.0847    560.28113   -164.53235    537960.55    -539994.7   -321.63854    39169.042   0.52626424    321.42547     326.6315    1.0861861 
    1280         1280    88.147683    426.37099    1518.1956   -1091.8246    509.06853    617.59649   -180.55068    537933.21    -539992.7   -620.83125     39151.89   0.52649479    312.83142    317.78435    1.0852406 
    1290         1290    88.823027    414.63351    1553.3371   -1138.7036    484.34516    586.85531   -181.78864    537950.74    -539993.9    254.54281    39133.176   0.52674656     319.9705    325.16208    1.0663413 
    1300         1300    89.516381    403.37227    1543.7052   -1140.3329    505.20824    577.35111   -180.84728    537933.29    -539992.5   -44.795728    39115.348   0.52698665    318.15933    323.18665   0.97807258 
    1310         1310    90.217709    392.14133    1537.0649   -1144.9235    511.03917    610.15699   -190.40072    537886.99   -539990.15   -552.27308    39097.644   0.52722527    316.79122    321.81054   0.94568205 
    1320         1320    90.903743    380.67483    1548.8569   -1168.1821    491.07519    564.67798   -192.39507    537935.84   -539990.53   -230.71988     39078.45   0.52748423    319.09459    324.25891   0.99390849 
    1330         1330    91.596026    369.75539    1534.9167   -1165.1614      507.076    583.88606   -177.67603    537907.65      -539990    405.22773    39058.821   0.52774931    316.47359    321.37564   0.91467388 
    1340         1340    92.273535    359.05731    1525.4786   -1166.4212    497.63373    601.69088   -183.21428     537925.7   -539993.38    255.87303    39040.937   0.52799106    314.21306    319.37855   0.95096098 
    1350         1350     92.96347    348.78036    1486.7122   -1137.9319    510.81966     593.8195    -198.3198    537970.13   -539992.76   -546.45157    39024.137   0.52821837    306.44936    311.29173    0.8679722 
    1360         1360     93.64702    338.28157    1519.6038   -1181.3222    498.92969    587.54355   -211.41049    537952.67   -539985.99   -73.453405    39006.076   0.52846294    313.14091    318.19702   0.85042168 
    1370         1370    94.338578    328.14321    1508.8722    -1180.729     502.0876    564.03092   -213.48922    537976.88   -539990.85   -155.84444    38987.824   0.52871035    310.87237    315.93211   0.87997336 
    1380         1380    95.033163    317.80999    1513.8796   -1196.0696    491.11639    575.79571   -213.35369    537962.43   -539989.94   -476.41548     38969.23   0.52896262    312.00799    316.99551    0.8530112 
    1390         1390    95.711654    307.88837    1492.7778   -1184.8894    487.58365    592.28899   -213.76608    537961.79   -539995.23   -489.72644    38949.272   0.52923366    307.64225    312.55759   0.87985113 
    1400         1400    96.382817    298.10172    1503.5417     -1205.44    480.03514    569.37448   -213.09486     537964.9   -539995.44   -625.22466    38927.696     0.529527    309.82406    314.84017   0.82853994 
    1410         1410     97.07431    288.39497      1499.82    -1211.425    480.36526    564.45219   -213.51652     537954.8   -539992.15   -259.19258    38904.295    0.5298455    309.32945    314.03898   0.87020348 
    1420         1420    97.742513    278.85215    1522.3698   -1243.5177    485.99375    561.50554   -209.19733    537922.71   -539993.29    -142.1742    38880.213    0.5301737    313.72886    318.75504   0.89433162 
    1430         1430    98.433859     269.2021    1530.9912   -1261.7891    475.99862    564.09601    -191.6853    537894.94   -539989.87   -219.42531    38856.009   0.53050394     315.3848    320.55941   0.90095316 
    1440         1440    99.129957    259.83967    1493.7661   -1233.9264    494.43047    592.70116   -170.31054    537844.83   -539989.05   -303.01625     38831.45   0.53083946    307.74971    312.75457   0.90032175 
    1450         1450    99.813066    250.16278     1478.882   -1228.7192     492.4154    588.98167   -160.23785    537828.24   -539990.43   -216.01885    38806.254   0.53118412    304.68152    309.59998   0.96786347 
    1460         1460    100.50575    240.68805    1495.8215   -1255.1334    494.64542    572.53707   -178.04039    537837.08   -539987.44    47.832605    38780.836   0.53153228    308.28376    313.14092   0.98954674 
    1470         1470    101.19723     231.3084    1513.8414    -1282.533    499.13995    553.10442   -176.44065    537844.02   -539988.31    -637.7582    38755.708   0.53187691    312.05991    316.90601    1.0159812 
    1480         1480    101.89509    222.09859    1505.7987   -1283.7001    500.92735    532.14741   -184.25693    537879.22   -539987.88   -591.72796    38728.878   0.53224537    310.17711    315.23199   0.99136547 
    1490         1490    102.56488    213.14179    1479.3775   -1266.2357    503.71559    572.92866   -207.71506    537887.43   -539987.29   -378.94563    38700.332   0.53263796    304.91855    309.65178    1.0720663 
    1500         1500    103.25515    203.91969    1502.2958   -1298.3761    481.50824    572.93966   -219.89904    537897.24   -539986.66   -411.06686    38670.837   0.53304422    309.53406    314.46236    1.0616662 
    1510         1510    103.94247    194.96944    1476.2258   -1281.2564    492.71131    580.48623   -224.72265    537893.94    -539983.2   -615.30192    38640.261   0.53346601    304.05731    308.97898    1.0959945 
    1520         1520    104.61477    185.79705    1499.7702   -1313.9732    502.24075    549.83129   -209.48323    537872.64   -539983.68   -853.96556    38607.888   0.53391333    309.19004     313.8997    1.1278807 
    1530         1530    105.30626    176.66223    1496.2605   -1319.5983    487.61367     564.0371   -210.38052    537881.64   -539987.76   -45.993522    38573.369   0.53439113     308.2859     313.1424    1.1706909 
    1540         1540    105.98062    167.30468    1509.5793   -1342.2747    484.70826    560.76595   -205.28232    537869.01   -539987.19   -394.64086    38538.951   0.53486837    311.08322    315.94918    1.1423693 
    1550         1550    106.67891    157.81128    1513.5743   -1355.7631    501.56421    553.04773   -194.94778    537848.45   -539991.21   -798.10405    38503.785   0.53535687    311.83679    316.76922    1.1775939 
    1560         1560     107.3653    148.77984     1487.931   -1339.1512    486.62562    594.88585   -190.71694    537821.56    -539989.6   -352.84351     38466.67   0.53587342    306.31266    311.38507    1.1923988 
    1570         1570    108.05785    139.61857    1492.0429   -1352.4243    495.36759    551.71446     -193.709    537833.41   -539986.36   -36.064878    38428.978   0.53639901    307.25883    312.26846    1.1499233 
    1580         1580    108.74586    130.44955    1497.1672   -1366.7177    500.84244    540.43915   -195.00023    537816.63   -539988.19   -207.69615    38391.915   0.53691685     308.5692     313.3432    1.1493094 
    1590         1590    109.44688    121.29977    1475.3297   -1354.0299    502.69119    562.18548    -184.3876    537779.93   -539983.95   -701.90588    38354.821   0.53743612    304.09275    308.77702    1.1241263 
    1600         1600    110.12352    112.29253    1465.3483   -1353.0557    498.56871    560.33345   -183.94436    537782.94   -539985.61    62.497105    38316.502   0.53797358    301.94751    306.71497    1.0625339 
    1610         1610    110.82452    103.46322    1482.3241   -1378.8609    510.17675    573.26218   -180.87017    537728.87   -539984.85   -462.68943    38278.885   0.53850225    305.61761    310.26833    1.0745981 
    1620         1620    111.52566    94.462702    1464.1659   -1369.7032    501.07487    583.65534    -179.1581    537729.44    -539982.9    -1003.084    38240.473   0.53904317    301.71486     306.4345    1.1276524 
    1630         1630    112.22434    85.744351    1431.8456   -1346.1013    506.23489    559.01914   -165.92022    537754.42   -539982.91   -44.922828    38199.836   0.53961661    295.07256     299.6966    1.0499782 
    1640         1640    112.91181    77.883773     1431.916   -1354.0322    515.19249    560.29179   -161.32501    537739.63   -539981.17   -288.57138    38159.637   0.54018506    295.12068    299.73953   0.99361413 
    1650         1650    113.60929    69.951714    1408.3479   -1338.3962    521.43148    576.68685   -171.12417    537765.39   -539986.16   -701.05944    38119.471   0.54075425    290.24084    294.81551   0.95838791 
    1660         1660      114.294    61.960243    1443.0348   -1381.0746    502.75633    561.60999    -173.7664    537766.93   -539987.21   -226.09809    38078.131   0.54134133    297.52366     302.0827   0.96994803 
    1670         1670       114.99    54.255728      1469.98   -1415.7242    489.79022    547.54612   -185.22503    537779.93   -539991.17    220.27193    38037.077   0.54192561    302.94306    307.77333   0.88810335 
    1680         1680    115.67178    47.265331    1454.0772   -1406.8119    485.87507    550.06616   -193.54409    537805.56   -539995.39   -303.54356    37997.753   0.54248645     299.9021    304.44801   0.86994223 
    1690         1690    116.37051    40.013281    1414.0487   -1374.0354    496.50299    585.34646   -209.38601    537812.11   -539992.75   -777.78258     37958.43   0.54304843    291.58093    296.05926   0.86152909 
    1700         1700    117.04984      32.9472     1426.299   -1393.3518     474.5113    558.00619   -213.63699    537852.91   -539993.88    266.84396    37918.012   0.54362728    293.91287    298.62059   0.87603505 
    1710         1710    117.75925     26.34909    1444.3476   -1417.9985    493.39365    533.46162   -228.21989    537848.73   -539989.16   -109.98361    37879.284   0.54418309     297.7381    302.42229   0.84126891 
    1720         1720    118.46526    19.241827    1440.9792   -1421.7373    492.13181    541.30218    -227.7986     537839.5   -539990.04   -1034.8525    37841.236   0.54473025    297.06006    301.72293   0.82744545 
    1730         1730    119.15048    12.244898    1440.1712   -1427.9263    500.74462    543.86644   -213.66719    537808.85    -539989.6   -915.51009    37800.891   0.54531164    296.91112    301.51145   0.91158063 
    1740         1740    119.85618    5.5714644    1428.1293   -1422.5578    499.43262    549.90308   -195.96662    537788.13   -539988.03   -3.6786977    37758.736   0.54592045    294.33156    299.00275   0.87922923 
    1750         1750    120.54619  -0.45398177    1423.3987   -1423.8527    493.18703    547.29329   -185.21619    537782.22   -539986.76    182.59625    37717.739   0.54651383    293.34517    298.03646   0.82804723 
    1760         1760    121.25623   -6.1919038    1389.9778   -1396.1697    500.11352    568.22991   -172.48994    537757.92   -539982.04   -545.30728    37678.439   0.54708387    286.50557    291.01141   0.86313198 
    1770         1770    121.93922   -12.293353    1409.1151   -1421.4085     493.3545    574.98039   -187.01225    537740.79   -539985.38   -139.94802    37638.881   0.54765884    290.40968    295.02394   0.86328318 
    1780         1780    122.64347   -18.079343    1431.0225   -1449.1019    518.16951    539.99065   -196.68849     537719.3   -539990.89    270.31946    37600.124   0.54822335    294.99564    299.60534   0.88731829 
    1790         1790    123.33416   -23.689678      1453.19   -1476.8797    501.19182    534.83108   -202.32276    537723.07   -539992.42   -53.923445    37563.459   0.54875846    299.43425    304.25779   0.87833003 
    1800         1800     124.0362   -28.879689     1418.552   -1447.4317     513.6365    556.22747   -194.90638    537737.26   -539994.05   -491.44436    37527.798   0.54927993    292.45556    296.98957   0.88938274 
    1810         1810    124.72592   -34.326386    1425.1449   -1459.4713    502.78393    557.92228   -188.01057    537729.93   -539990.52   -269.52053    37491.807   0.54980722    293.57211    298.34713   0.93896776 
    1820         1820    125.42808    -39.50595    1421.8112   -1461.3172    493.99291    564.49657   -191.40421    537738.48   -539993.36    141.03947    37456.232   0.55032941    293.00269    297.63525   0.96474298 
    1830         1830    126.10877   -45.131045    1456.6598   -1501.7909    508.50049    563.84263   -185.66907    537690.67    -539996.5   -596.99808    37421.947   0.55083361    300.14286    304.94541   0.95817196 
    1840         1840     126.8033   -50.718896    1463.5551    -1514.274    518.35121    551.80901   -182.64458    537679.58   -539999.56   -356.86881     37387.02    0.5513482    301.53943    306.34485    1.0508221 
    1850         1850    127.48901   -56.169373    1465.0934   -1521.2628     523.9441    535.51656   -192.04035    537692.37   -540002.42    14.237689    37352.047   0.55186443    301.84602     306.6432    1.0991807 
    1860         1860    128.17832   -61.746773    1457.3329   -1519.0797    517.21016    528.57559   -189.04218    537702.96   -540001.76   -81.723106    37318.204    0.5523649    300.04669    305.01663    1.0979667 
    1870         1870    128.84756   -66.931707      1427.61   -1494.5417    521.20148    546.64415   -196.52008    537711.49   -539997.43   -46.041141    37285.324     0.552852    294.06407    298.78212    1.1027061 
    1880         1880    129.55224    -72.55405    1455.9128   -1528.4669    508.45212    548.26755   -208.11473    537709.63   -540002.68   -306.22472    37253.354   0.55332644    299.93266    304.70406    1.1275873 
    1890         1890    130.25363   -78.709283     1471.972   -1550.6812    506.36522    570.79777   -230.44758    537685.27   -539999.77   -324.03464     37221.49   0.55380013    303.32625    308.07361    1.1228851 
    1900         1900    130.93532   -85.190712    1456.8998   -1542.0905    512.08315    542.83037   -233.21714    537706.22   -539998.56    -828.9349    37189.324   0.55427912    300.17215    304.90077    1.1480744 
    1910         1910    131.64305    -91.17215    1443.4898   -1534.6619    518.15258    548.43638   -225.11928     537687.2   -539995.05   -510.38563     37155.63   0.55478176    297.45632    302.06335     1.199425 
    1920         1920    132.32337   -96.942991    1441.1437   -1538.0867     515.3242    589.31694    -212.4115    537629.01   -539992.52   -356.55664    37121.215    0.5552961    297.07028    301.58175    1.1787869 
    1930         1930    133.02397   -103.16981    1436.7415   -1539.9113     528.1959     550.5162   -199.14452       537636   -539998.07   -555.36974    37086.568   0.55581487    296.07565    300.65625    1.1837404 
    1940         1940    133.70851   -109.31893    1426.8418   -1536.1607    519.36033    566.98017   -188.79587    537608.35   -539994.45   -352.69641    37051.329    0.5563435    293.88551    298.58644    1.1719193 
    1950         1950    134.40653   -115.36493    1450.6434   -1566.0083     512.5905    550.89405   -178.61271    537595.96   -540000.97   -291.67297    37015.978   0.55687481     298.7376    303.57491    1.1761814 
    1960         1960    135.09589   -121.15057      1435.35   -1556.5006    529.22528    542.65247   -167.22757    537591.29   -540003.82    234.05773    36980.955    0.5574022      295.887    300.39361     1.125507 
    1970         1970    135.79901   -126.84539    1436.4257   -1563.2711    515.13404    565.89493   -170.70325    537586.42   -540000.19   -35.988813    36947.754   0.55790308    296.05087    300.62446    1.1149271 
    1980         1980    136.51745   -132.69454    1441.8559   -1574.5505    511.04803    571.15904   -181.08954    537591.61    -540001.7   -569.56467    36915.446   0.55839135    297.07978    301.78595    1.0690786 
    1990         1990    137.19956   -138.98913    1483.0893   -1622.0784    505.92562    545.06939   -178.80056    537572.57   -539999.75   -248.72575    36882.509   0.55889001    305.58613    310.44889    1.0343638 
    2000         2000    137.91408   -145.02856    1439.8744    -1584.903    519.28678    568.70476   -166.26544    537556.85    -540000.6   -16.512081    36849.764   0.55938665    296.63112    301.40656   0.99691127 
Loop time of 137.914 on 1 procs for 2000 steps with 2800 atoms

Performance: 1.253 ns/day, 19.155 hours/ns, 14.502 timesteps/s
99.3% CPU use with 1 MPI tasks x no OpenMP threads

MPI task timing breakdown:
Section |  min time  |  avg time  |  max time  |%varavg| %total
---------------------------------------------------------------
Pair    | 25.777     | 25.777     | 25.777     |   0.0 | 18.69
Bond    | 1.5617     | 1.5617     | 1.5617     |   0.0 |  1.13
Kspace  | 70.65      | 70.65      | 70.65      |   0.0 | 51.23
Neigh   | 2.0179     | 2.0179     | 2.0179     |   0.0 |  1.46
Comm    | 0.16914    | 0.16914    | 0.16914    |   0.0 |  0.12
Output  | 0.015132   | 0.015132   | 0.015132   |   0.0 |  0.01
Modify  | 37.698     | 37.698     | 37.698     |   0.0 | 27.33
Other   |            | 0.02468    |            |       |  0.02

Nlocal:        2800.00 ave        2800 max        2800 min
Histogram: 1 0 0 0 0 0 0 0 0 0
Nghost:        7316.00 ave        7316 max        7316 min
Histogram: 1 0 0 0 0 0 0 0 0 0
Neighs:       485484.0 ave      485484 max      485484 min
Histogram: 1 0 0 0 0 0 0 0 0 0

Total # of neighbors = 485484
Ave neighs/atom = 173.38714
Ave special neighs/atom = 11.714286
Neighbor list builds = 116
Dangerous builds = 0

Total wall time: 0:02:18
