LAMMPS (26 Sep 2016)
# 3d Lennard-Jones melt

units		lj
atom_style	atomic
processors      * 1 1

lattice		fcc 0.8442
Lattice spacing in x,y,z = 1.6796 1.6796 1.6796
region		box block 0 10 0 10 0 10
create_box	3 box
Created orthogonal box = (0 0 0) to (16.796 16.796 16.796)
  4 by 1 by 1 MPI processor grid
create_atoms	1 box
Created 4000 atoms
mass		* 1.0

region		long block 3 6 0 10 0 10
set             region long type 2
  1400 settings made for type

velocity	all create 1.0 87287

pair_style	lj/cut 2.5
pair_coeff	* * 1.0 1.0 2.5
pair_coeff      * 2 1.0 1.0 5.0

neighbor	0.3 bin
neigh_modify	every 2 delay 4 check yes
fix		p all property/atom d_WEIGHT
fix		0 all balance 50 1.0 shift x 5 1.0                 weight neigh 0.8 weight store WEIGHT
compute		p all property/atom d_WEIGHT
variable	maximb equal f_0[1]
variable	iter   equal f_0[2]
variable 	prev   equal f_0[3]
variable	final  equal f_0

#fix		3 all print 50 "${iter} ${prev} ${final} ${maximb}"

fix		1 all nve

#dump		id all atom 50 dump.melt
#dump		id all custom 50 dump.lammpstrj id type x y z c_p

#dump		2 all image 25 image.*.jpg type type #		axes yes 0.8 0.02 view 60 -30
#dump_modify	2 pad 3

#dump		3 all movie 25 movie.mp4 c_p type #		axes yes 0.8 0.02 view 60 -30
#dump_modify	3 pad 3 amap 0.0 2.0 cf 0.1 3 min blue 0.5 green max red

thermo		50
run		500
Neighbor list info ...
  1 neighbor list requests
  update every 2 steps, delay 4 steps, check yes
  max neighbors/atom: 2000, page size: 100000
  master list distance cutoff = 5.3
  ghost atom cutoff = 5.3
  binsize = 2.65 -> bins = 7 7 7
WARNING: No suitable neighbor list found. Neighbor weighted balancing skipped (../imbalance_neigh.cpp:65)
Memory usage per processor = 3.0442 Mbytes
Step Temp E_pair E_mol TotEng Press Volume 
       0            1   -6.9453205            0   -5.4456955   -5.6812358    4738.2137 
      50   0.48653399   -6.1788509            0   -5.4492324   -1.6017778    4738.2137 
     100   0.53411175    -6.249885            0   -5.4489177   -1.9317606    4738.2137 
     150   0.53646658   -6.2527206            0   -5.4482219   -1.9689568    4738.2137 
     200   0.54551611   -6.2656326            0   -5.4475631   -2.0042104    4738.2137 
     250   0.54677719   -6.2671162            0   -5.4471555   -2.0015995    4738.2137 
     300    0.5477618   -6.2678071            0   -5.4463698    -1.997842    4738.2137 
     350   0.55600296   -6.2801497            0   -5.4463538   -2.0394056    4738.2137 
     400   0.53241503   -6.2453665            0   -5.4469436    -1.878594    4738.2137 
     450    0.5439158      -6.2623            0   -5.4466302   -1.9744161    4738.2137 
     500   0.55526241   -6.2793396            0   -5.4466542   -2.0595015    4738.2137 
Loop time of 2.27598 on 4 procs for 500 steps with 4000 atoms

Performance: 94904.173 tau/day, 219.686 timesteps/s
99.4% CPU use with 4 MPI tasks x no OpenMP threads

MPI task timing breakdown:
Section |  min time  |  avg time  |  max time  |%varavg| %total
---------------------------------------------------------------
Pair    | 1.1158     | 1.4132     | 1.6545     |  19.0 | 62.09
Neigh   | 0.25541    | 0.38197    | 0.55281    |  20.3 | 16.78
Comm    | 0.33626    | 0.46086    | 0.58471    |  14.7 | 20.25
Output  | 0.00030327 | 0.00033396 | 0.0003922  |   0.2 |  0.01
Modify  | 0.0061643  | 0.0082641  | 0.011169   |   2.4 |  0.36
Other   |            | 0.01137    |            |       |  0.50

Nlocal:    1000 ave 1551 max 604 min
Histogram: 2 0 0 0 0 0 1 0 0 1
Nghost:    8754.75 ave 9849 max 8074 min
Histogram: 2 0 0 0 0 1 0 0 0 1
Neighs:    149308 ave 163995 max 129030 min
Histogram: 1 0 0 1 0 0 0 0 0 2

Total # of neighbors = 597231
Ave neighs/atom = 149.308
Neighbor list builds = 50
Dangerous builds = 0
run		500
Memory usage per processor = 3.06519 Mbytes
Step Temp E_pair E_mol TotEng Press Volume 
     500   0.55526241   -6.2793396            0   -5.4466542   -2.0595015    4738.2137 
     550   0.53879347   -6.2554274            0   -5.4474393   -1.9756834    4738.2137 
     600   0.54275982   -6.2616799            0   -5.4477437   -1.9939993    4738.2137 
     650   0.54526651    -6.265098            0   -5.4474027   -2.0303672    4738.2137 
     700   0.54369381    -6.263201            0   -5.4478642   -1.9921967    4738.2137 
     750   0.54452777   -6.2640839            0   -5.4474964   -1.9658675    4738.2137 
     800   0.55061744   -6.2725556            0   -5.4468359   -2.0100922    4738.2137 
     850   0.55371614   -6.2763992            0   -5.4460326   -2.0065329    4738.2137 
     900   0.54756622   -6.2668303            0   -5.4456863   -1.9796122    4738.2137 
     950   0.54791593   -6.2673161            0   -5.4456477   -1.9598278    4738.2137 
    1000   0.54173198   -6.2586101            0   -5.4462153   -1.9007466    4738.2137 
Loop time of 2.14853 on 4 procs for 500 steps with 4000 atoms

Performance: 100533.652 tau/day, 232.717 timesteps/s
99.5% CPU use with 4 MPI tasks x no OpenMP threads

MPI task timing breakdown:
Section |  min time  |  avg time  |  max time  |%varavg| %total
---------------------------------------------------------------
Pair    | 1.1688     | 1.3591     | 1.5126     |  13.1 | 63.26
Neigh   | 0.24981    | 0.38774    | 0.57835    |  22.5 | 18.05
Comm    | 0.36101    | 0.38157    | 0.41179    |   3.0 | 17.76
Output  | 0.00031686 | 0.00034499 | 0.00040627 |   0.2 |  0.02
Modify  | 0.0059092  | 0.0082516  | 0.011432   |   2.6 |  0.38
Other   |            | 0.01149    |            |       |  0.53

Nlocal:    1000 ave 1559 max 601 min
Histogram: 2 0 0 0 0 0 1 0 0 1
Nghost:    8717.25 ave 9789 max 8011 min
Histogram: 2 0 0 0 0 1 0 0 0 1
Neighs:    150170 ave 165071 max 129263 min
Histogram: 1 0 0 1 0 0 0 0 0 2

Total # of neighbors = 600678
Ave neighs/atom = 150.169
Neighbor list builds = 53
Dangerous builds = 0
run             500
Memory usage per processor = 3.06519 Mbytes
Step Temp E_pair E_mol TotEng Press Volume 
    1000   0.54173198   -6.2586101            0   -5.4462153   -1.9007466    4738.2137 
    1050   0.54629742   -6.2657526            0   -5.4465113    -1.945821    4738.2137 
    1100   0.55427881   -6.2781733            0    -5.446963   -2.0021027    4738.2137 
    1150   0.54730654    -6.267257            0   -5.4465025   -1.9420678    4738.2137 
    1200    0.5388281   -6.2547963            0   -5.4467562    -1.890178    4738.2137 
    1250   0.54848768   -6.2694237            0   -5.4468979   -1.9636797    4738.2137 
    1300   0.54134321   -6.2590728            0    -5.447261   -1.9170271    4738.2137 
    1350   0.53564389   -6.2501521            0   -5.4468871   -1.8642306    4738.2137 
    1400   0.53726925   -6.2518379            0   -5.4461355   -1.8544028    4738.2137 
    1450   0.54525935   -6.2632653            0   -5.4455808   -1.9072158    4738.2137 
    1500   0.54223342   -6.2591056            0   -5.4459588    -1.886698    4738.2137 
Loop time of 2.13806 on 4 procs for 500 steps with 4000 atoms

Performance: 101026.160 tau/day, 233.857 timesteps/s
99.5% CPU use with 4 MPI tasks x no OpenMP threads

MPI task timing breakdown:
Section |  min time  |  avg time  |  max time  |%varavg| %total
---------------------------------------------------------------
Pair    | 1.1911     | 1.3674     | 1.5133     |  12.4 | 63.95
Neigh   | 0.2394     | 0.37334    | 0.55622    |  22.2 | 17.46
Comm    | 0.36084    | 0.37761    | 0.409      |   3.0 | 17.66
Output  | 0.00030899 | 0.00033534 | 0.00039768 |   0.2 |  0.02
Modify  | 0.0060141  | 0.0083458  | 0.011389   |   2.6 |  0.39
Other   |            | 0.01105    |            |       |  0.52

Nlocal:    1000 ave 1545 max 604 min
Histogram: 2 0 0 0 0 0 1 0 0 1
Nghost:    8704 ave 9801 max 7983 min
Histogram: 2 0 0 0 0 1 0 0 0 1
Neighs:    150494 ave 165851 max 129789 min
Histogram: 1 0 0 1 0 0 0 0 0 2

Total # of neighbors = 601974
Ave neighs/atom = 150.494
Neighbor list builds = 51
Dangerous builds = 0
run             500
Memory usage per processor = 3.06519 Mbytes
Step Temp E_pair E_mol TotEng Press Volume 
    1500   0.54223342   -6.2591056            0   -5.4459588    -1.886698    4738.2137 
    1550   0.55327017   -6.2750125            0   -5.4453147   -1.9506581    4738.2137 
    1600   0.54419032   -6.2612626            0   -5.4451812   -1.8559458    4738.2137 
    1650   0.54710059   -6.2661984            0   -5.4457527   -1.8882842    4738.2137 
    1700   0.53665689   -6.2504959            0   -5.4457118   -1.8067985    4738.2137 
    1750   0.54864916   -6.2681196            0   -5.4453516   -1.8662894    4738.2137 
    1800   0.54476391   -6.2615108            0   -5.4445692   -1.8352746    4738.2137 
    1850   0.54142945   -6.2555553            0   -5.4436142   -1.8005732    4738.2137 
    1900   0.53992253   -6.2541407            0   -5.4444594   -1.7768992    4738.2137 
    1950   0.54663678   -6.2640967            0   -5.4443465   -1.7945736    4738.2137 
    2000   0.54563235   -6.2626431            0   -5.4443992    -1.807693    4738.2137 
Loop time of 2.18212 on 4 procs for 500 steps with 4000 atoms

Performance: 98986.300 tau/day, 229.135 timesteps/s
99.7% CPU use with 4 MPI tasks x no OpenMP threads

MPI task timing breakdown:
Section |  min time  |  avg time  |  max time  |%varavg| %total
---------------------------------------------------------------
Pair    | 1.1776     | 1.3712     | 1.5256     |  13.4 | 62.84
Neigh   | 0.26314    | 0.4065     | 0.59956    |  22.6 | 18.63
Comm    | 0.36859    | 0.3845     | 0.41286    |   2.7 | 17.62
Output  | 0.00031281 | 0.00033575 | 0.00039792 |   0.2 |  0.02
Modify  | 0.0058827  | 0.0082896  | 0.011639   |   2.7 |  0.38
Other   |            | 0.01133    |            |       |  0.52

Nlocal:    1000 ave 1544 max 605 min
Histogram: 2 0 0 0 0 0 1 0 0 1
Nghost:    8676.25 ave 9831 max 7985 min
Histogram: 2 0 0 0 1 0 0 0 0 1
Neighs:    151653 ave 166956 max 130753 min
Histogram: 1 0 0 1 0 0 0 0 0 2

Total # of neighbors = 606611
Ave neighs/atom = 151.653
Neighbor list builds = 56
Dangerous builds = 0

Total wall time: 0:00:08
