LAMMPS (26 Sep 2016)
# 3d Lennard-Jones melt

units		lj
#atom_style	charge
processors      * 1 1

lattice		fcc 0.8442
Lattice spacing in x,y,z = 1.6796 1.6796 1.6796
region		box block 0 10 0 10 0 10
create_box	3 box
Created orthogonal box = (0 0 0) to (16.796 16.796 16.796)
  4 by 1 by 1 MPI processor grid
create_atoms	1 box
Created 4000 atoms
mass		* 1.0

region		long block 3 6 0 10 0 10
set             region long type 2
  1400 settings made for type
#set type 1:2    charge 0.0

velocity	all create 1.0 87287

pair_style	lj/long/coul/long long off 2.5
pair_coeff	* * 1.0 1.0 2.5
pair_coeff      * 2 1.0 1.0 5.0

kspace_style    pppm/disp 1.0e-4
kspace_modify   gewald/disp 0.1

neighbor	0.3 bin
neigh_modify	every 2 delay 4 check yes

group		fast type 1
2600 atoms in group fast
group		slow type 2
1400 atoms in group slow
fix		0 all balance 20 1.0 shift x 5 1.0                 weight group 2 fast 1.0 slow 2.0 weight time 0.66

fix		1 all nve

#dump		id all atom 50 dump.melt

#dump		2 all image 25 image.*.jpg type type #		axes yes 0.8 0.02 view 60 -30
#dump_modify	2 pad 3

#dump		3 all movie 25 movie.mpg type type #		axes yes 0.8 0.02 view 60 -30
#dump_modify	3 pad 3

thermo		50
run		500
PPPMDisp initialization ...
  Dispersion G vector (1/distance) = 0.1
  Dispersion grid = 2 2 2
  Dispersion stencil order = 5
  Dispersion estimated absolute RMS force accuracy = 1.01251
  Dispersion estimated absolute real space RMS force accuracy = 1.01251
  Dispersion estimated absolute kspace RMS force accuracy = 7.29446e-07
  Disperion estimated relative force accuracy = 1.01251
  using double precision FFTs
  3d grid and FFT values/proc dispersion = 294 4
Neighbor list info ...
  1 neighbor list requests
  update every 2 steps, delay 4 steps, check yes
  max neighbors/atom: 2000, page size: 100000
  master list distance cutoff = 5.3
  ghost atom cutoff = 5.3
  binsize = 2.65 -> bins = 7 7 7
Memory usage per processor = 3.32692 Mbytes
Step Temp E_pair E_mol TotEng Press Volume 
       0            1    52.148338            0    53.647963     94.09503    4738.2137 
      50    17.850656    42.620113            0    69.389403    142.80556    4738.2137 
     100    9.4607189    49.700118            0    63.887649    117.51739    4738.2137 
     150    13.992056    47.731988            0    68.714825    140.56926    4738.2137 
     200    11.617635    52.509395            0    69.931491     142.6933    4738.2137 
     250    13.536262    48.330072            0    68.629389    133.91619    4738.2137 
     300    12.619724    50.326376            0     69.25123    132.46494    4738.2137 
     350    14.513005    50.110693            0    71.874758    143.39284    4738.2137 
     400    12.429702    49.690909            0      68.3308     130.0808    4738.2137 
     450    13.928225    50.969523            0    71.856637    144.44675    4738.2137 
     500    13.286368    50.355522            0    70.280091     137.2389    4738.2137 
Loop time of 4.79482 on 4 procs for 500 steps with 4000 atoms

Performance: 45048.596 tau/day, 104.279 timesteps/s
99.1% CPU use with 4 MPI tasks x no OpenMP threads

MPI task timing breakdown:
Section |  min time  |  avg time  |  max time  |%varavg| %total
---------------------------------------------------------------
Pair    | 0.85927    | 1.571      | 2.2092     |  51.0 | 32.76
Kspace  | 0.61247    | 1.982      | 3.2697     |  85.3 | 41.34
Neigh   | 0.2976     | 0.98099    | 1.8525     |  68.1 | 20.46
Comm    | 0.090759   | 0.23335    | 0.34356    |  22.4 |  4.87
Output  | 0.00027442 | 0.00034857 | 0.0004065  |   0.3 |  0.01
Modify  | 0.013081   | 0.016089   | 0.0201     |   2.3 |  0.34
Other   |            | 0.01104    |            |       |  0.23

Nlocal:    1000 ave 1853 max 359 min
Histogram: 2 0 0 0 0 0 0 1 0 1
Nghost:    7773.5 ave 9196 max 6355 min
Histogram: 2 0 0 0 0 0 0 0 0 2
Neighs:    127368 ave 180948 max 71698 min
Histogram: 2 0 0 0 0 0 0 0 0 2

Total # of neighbors = 509471
Ave neighs/atom = 127.368
Neighbor list builds = 124
Dangerous builds = 97
Total wall time: 0:00:04
