LAMMPS (22 Dec 2022)
# QMMM with NWChem

units		real
atom_style	full

bond_style      harmonic
angle_style     harmonic

read_data       data.water.qmmm
Reading data file ...
  orthogonal box = (-6.879301 -6.879301 -6.879301) to (6.879301 6.879301 6.879301)
  1 by 1 by 1 MPI processor grid
  reading atoms ...
  6 atoms
  scanning bonds ...
  2 = max bonds/atom
  scanning angles ...
  1 = max angles/atom
  reading bonds ...
  4 bonds
  reading angles ...
  2 angles
Finding 1-2 1-3 1-4 neighbors ...
  special bond factors lj:    0        0        0       
  special bond factors coul:  0        0        0       
     2 = max # of 1-2 neighbors
     1 = max # of 1-3 neighbors
     1 = max # of 1-4 neighbors
     2 = max # of special neighbors
  special bonds CPU = 0.000 seconds
  read_data CPU = 0.002 seconds

# QM atoms are 1st water
# MM atoms are 2nd water

group           qm molecule 1
3 atoms in group qm
group           mm molecule 2
3 atoms in group mm

# remove bonds/angles between QM atoms

delete_bonds    qm multi remove special
System init for delete_bonds ...
Deleting bonds ...
  2 total bonds, 2 turned on, 0 turned off
  1 total angles, 1 turned on, 0 turned off
  0 total dihedrals, 0 turned on, 0 turned off
  0 total impropers, 0 turned on, 0 turned off
Finding 1-2 1-3 1-4 neighbors ...
  special bond factors lj:    0        0        0       
  special bond factors coul:  0        0        0       
     2 = max # of 1-2 neighbors
     1 = max # of 1-3 neighbors
     1 = max # of 1-4 neighbors
     2 = max # of special neighbors
  special bonds CPU = 0.000 seconds

# pair style must define stand-alone short-range Coulombics
# must specify mixing explicitly b/c hybrid/overlay
# QM O,H = types 1,2
# MM O,H = types 3,4
# QM O,H atoms do not LJ interact with each other
# only MM O atoms LJ interact with other b/c MM H is zero
# MM/QM O do LJ interact with each other, same as pair of MM O atoms
# MM O and QM H do LJ interact with each other with non-zero H epsilon = 0.044
#   geometric mixing for epsilon, arithmetic for sigma
#   this is to provide stability for QM H atoms

# mixing only for MM-O/QM-O and MM-O/QM-H

pair_style      hybrid/overlay lj/cut 6.0 coul/cut 6.0
pair_coeff      1 1 lj/cut 0.0 3.165558
pair_coeff      2 2 lj/cut 0.0 0.7
pair_coeff      3 3 lj/cut 0.155394 3.165558
pair_coeff      4 4 lj/cut 0.0 0.7
pair_coeff      1 3 lj/cut 0.155394 3.165558
pair_coeff      2 3 lj/cut 0.08268818537130924 1.932779
pair_coeff      * * coul/cut

neighbor	1.0 bin
neigh_modify	delay 0 every 1 check yes

# QMMM dynamics

timestep        0.1

fix		1 all nve

fix             2 qm mdi/qmmm potential elements O H O H
fix_modify      2 energy yes

thermo_style    custom step cpu temp ke evdwl ecoul epair emol elong                 f_2 pe etotal press

thermo          1
run		10
Generated 0 of 6 mixed pair_coeff terms from geometric mixing rule
Neighbor list info ...
  update: every = 1 steps, delay = 0 steps, check = yes
  max neighbors/atom: 2000, page size: 100000
  master list distance cutoff = 7
  ghost atom cutoff = 7
  binsize = 3.5, bins = 4 4 4
  2 neighbor lists, perpetual/occasional/extra = 2 0 0
  (1) pair lj/cut, perpetual, skip from (2)
      attributes: half, newton on
      pair build: skip
      stencil: none
      bin: none
  (2) pair coul/cut, perpetual
      attributes: half, newton on
      pair build: half/bin/newton
      stencil: half/bin/3d
      bin: standard
Per MPI rank memory allocation (min/avg/max) = 7.445 | 7.445 | 7.445 Mbytes
   Step          CPU            Temp          KinEng         E_vdwl         E_coul         E_pair         E_mol          E_long          f_2           PotEng         TotEng         Press     
         0   0              0              0              0.95937448    -170.68735     -169.72798      3.3962859      0             -10627.878     -10794.209     -10794.209     -374.81058    
         1   1.3998539      1.1713705      0.017458165    0.95934217    -170.68987     -169.73053      3.3804649      0             -10627.878     -10794.229     -10794.211     -376.91596    
         2   4.2727994      4.6633575      0.069502914    0.95924532    -170.70698     -169.74773      3.3333254      0             -10627.871     -10794.286     -10794.216     -383.31463    
         3   8.6537003      10.410148      0.15515337     0.95908482    -170.73725     -169.77816      3.2558316      0             -10627.857     -10794.38      -10794.224     -393.99       
         4   14.050859      18.303344      0.27279397     0.95886179    -170.78053     -169.82167      3.1495694      0             -10627.837     -10794.509     -10794.236     -408.93357    
         5   19.424842      28.194049      0.42020553     0.9585778     -170.83354     -169.87496      3.016716       0             -10627.813     -10794.671     -10794.251     -428.10518    
         6   25.315002      39.895741      0.59460812     0.95823491    -170.90236     -169.94412      2.8599973      0             -10627.779     -10794.864     -10794.269     -451.5421     
         7   31.945826      53.187854      0.79271445     0.95783553    -170.98485     -170.02702      2.6826348      0             -10627.739     -10795.083     -10794.29      -479.20295    
         8   38.843432      67.819953      1.010792       0.95738252    -171.0742      -170.11682      2.4882829      0             -10627.697     -10795.325     -10794.314     -510.99723    
         9   46.718156      83.516497      1.2447341      0.95687915    -171.17882     -170.22194      2.2809581      0             -10627.645     -10795.586     -10794.342     -546.9588     
        10   54.366233      99.982124      1.4901386      0.95632904    -171.28928     -170.33295      2.0649603      0             -10627.594     -10795.862     -10794.372     -586.9531     
Loop time of 54.3663 on 1 procs for 10 steps with 6 atoms

Performance: 0.002 ns/day, 15101.736 hours/ns, 0.184 timesteps/s, 1.104 atom-step/s
100.0% CPU use with 1 MPI tasks x no OpenMP threads

MPI task timing breakdown:
Section |  min time  |  avg time  |  max time  |%varavg| %total
---------------------------------------------------------------
Pair    | 3.4059e-05 | 3.4059e-05 | 3.4059e-05 |   0.0 |  0.00
Bond    | 1.1659e-05 | 1.1659e-05 | 1.1659e-05 |   0.0 |  0.00
Neigh   | 0          | 0          | 0          |   0.0 |  0.00
Comm    | 1.0583e-05 | 1.0583e-05 | 1.0583e-05 |   0.0 |  0.00
Output  | 0.00016554 | 0.00016554 | 0.00016554 |   0.0 |  0.00
Modify  | 54.366     | 54.366     | 54.366     |   0.0 |100.00
Other   |            | 1.567e-05  |            |       |  0.00

Nlocal:              6 ave           6 max           6 min
Histogram: 1 0 0 0 0 0 0 0 0 0
Nghost:             56 ave          56 max          56 min
Histogram: 1 0 0 0 0 0 0 0 0 0
Neighs:             12 ave          12 max          12 min
Histogram: 1 0 0 0 0 0 0 0 0 0

Total # of neighbors = 12
Ave neighs/atom = 2
Ave special neighs/atom = 1
Neighbor list builds = 0
Dangerous builds = 0
Total wall time: 0:01:59
