LAMMPS (28 Feb 2019)
OMP_NUM_THREADS environment is not set. Defaulting to 1 thread. (src/comm.cpp:87)
  using 1 OpenMP thread(s) per MPI task
# 2d micelle simulation

dimension	2

neighbor	0.3 bin
neigh_modify	delay 5

atom_style	bond

# Soft potential push-off

read_data	data.micelle
  orthogonal box = (-0.39293 -0.050929 -0.1) to (35.4639 35.8059 0.1)
  2 by 2 by 1 MPI processor grid
  reading atoms ...
  1200 atoms
  scanning bonds ...
  1 = max bonds/atom
  reading bonds ...
  300 bonds
  2 = max # of 1-2 neighbors
  1 = max # of 1-3 neighbors
  1 = max # of 1-4 neighbors
  2 = max # of special neighbors
special_bonds	fene
  2 = max # of 1-2 neighbors
  2 = max # of special neighbors

pair_style	soft 1.12246
pair_coeff	* * 0.0 1.12246

bond_style 	harmonic
bond_coeff	1 50.0 0.75

velocity	all create 0.45 2349852

variable	prefactor equal ramp(1.0,20.0)

fix		1 all nve
fix		2 all temp/rescale 100 0.45 0.45 0.02 1.0
fix		3 all adapt 1 pair soft a * * v_prefactor
fix		4 all enforce2d

thermo		50
run		1000
Neighbor list info ...
  update every 1 steps, delay 5 steps, check yes
  max neighbors/atom: 2000, page size: 100000
  master list distance cutoff = 1.42246
  ghost atom cutoff = 1.42246
  binsize = 0.71123, bins = 51 51 1
  1 neighbor lists, perpetual/occasional/extra = 1 0 0
  (1) pair soft, perpetual
      attributes: half, newton on
      pair build: half/bin/newton
      stencil: half/bin/2d/newton
      bin: standard
Per MPI rank memory allocation (min/avg/max) = 3.758 | 3.758 | 3.758 Mbytes
Step Temp E_pair E_mol TotEng Press 
       0         0.45   0.40179153  0.017198847   0.86861538   0.75625658 
      50    0.4900086   0.67873245  0.060027837    1.2283605    1.3564879 
     100         0.45   0.73189198  0.056737309    1.2382543     2.321972 
     150   0.67879051   0.72086182  0.047167282     1.446254    2.8618146 
     200         0.45   0.78767975  0.079977445    1.3172822    3.0463605 
     250   0.66920583   0.70051688  0.080338407    1.4495034    3.6886758 
     300         0.45   0.76847924  0.069944127    1.2880484    3.7420091 
     350   0.68081034   0.62208465   0.07485122    1.3771789    4.2772161 
     400         0.45   0.69469019  0.094115526    1.2384307    4.4786122 
     450   0.58484619   0.64001545  0.080279506    1.3046538    4.7171436 
     500         0.45   0.64066675  0.080351857    1.1706436    4.7965076 
     550   0.56464426   0.57619219  0.080291646    1.2206576     4.926662 
     600         0.45   0.58371075  0.088545932    1.1218817    5.0963739 
     650   0.53299132   0.54564667  0.084628459    1.1628223    5.2932897 
     700         0.45    0.5394553   0.10365542    1.0927357    5.3370157 
     750   0.55102913   0.48080137  0.093062502    1.1244338    5.3005553 
     800         0.45   0.51563293    0.1030928    1.0683507    5.5156219 
     850   0.51623625    0.4768524   0.10367899    1.0963375    5.5799809 
     900         0.45    0.4758065  0.098479812    1.0239113    5.6783722 
     950   0.49518604   0.45196847   0.10031719     1.047059    5.8438261 
    1000         0.45   0.45306784  0.094144249   0.99683709    5.8485623 
Loop time of 0.038061 on 4 procs for 1000 steps with 1200 atoms

Performance: 11350211.981 tau/day, 26273.639 timesteps/s
96.0% CPU use with 4 MPI tasks x 1 OpenMP threads

MPI task timing breakdown:
Section |  min time  |  avg time  |  max time  |%varavg| %total
---------------------------------------------------------------
Pair    | 0.016952   | 0.017563   | 0.018236   |   0.3 | 46.14
Bond    | 0.00098968 | 0.0010636  | 0.0011351  |   0.2 |  2.79
Neigh   | 0.0048919  | 0.0049396  | 0.0049865  |   0.1 | 12.98
Comm    | 0.0075874  | 0.0083745  | 0.0094497  |   0.7 | 22.00
Output  | 0.00021791 | 0.00024784 | 0.00033474 |   0.0 |  0.65
Modify  | 0.0035474  | 0.0036926  | 0.0038188  |   0.2 |  9.70
Other   |            | 0.00218    |            |       |  5.73

Nlocal:    300 ave 305 max 295 min
Histogram: 1 0 0 0 0 2 0 0 0 1
Nghost:    105.5 ave 109 max 102 min
Histogram: 1 1 0 0 0 0 0 0 1 1
Neighs:    797.75 ave 810 max 792 min
Histogram: 2 0 1 0 0 0 0 0 0 1

Total # of neighbors = 3191
Ave neighs/atom = 2.65917
Ave special neighs/atom = 0.5
Neighbor list builds = 99
Dangerous builds = 0

unfix		3

# Main run

pair_style	lj/cut 2.5

# solvent/head - full-size and long-range

pair_coeff	1 1 1.0 1.0 2.5
pair_coeff	2 2 1.0 1.0 2.5
pair_coeff	1 2 1.0 1.0 2.5

# tail/tail - size-averaged and long-range

pair_coeff	3 3 1.0 0.75 2.5
pair_coeff	4 4 1.0 0.50 2.5
pair_coeff	3 4 1.0 0.67 2.5

# solvent/tail - full-size and repulsive

pair_coeff	1 3 1.0 1.0 1.12246
pair_coeff	1 4 1.0 1.0 1.12246

# head/tail - size-averaged and repulsive

pair_coeff	2 3 1.0 0.88 1.12246
pair_coeff	2 4 1.0 0.75 1.12246

thermo		1000

#dump		1 all atom 2000 dump.micelle

#dump		2 all image 2000 image.*.jpg type type zoom 1.6
#dump_modify	2 pad 5 adiam 1 0.5 adiam 2 1.5 adiam 3 1.0 adiam 4 0.75

#dump		3 all movie 2000 movie.mpg type type zoom 1.6
#dump_modify	3 pad 5 adiam 1 0.5 adiam 2 1.5 adiam 3 1.0 adiam 4 0.75

reset_timestep	0
run		60000
Neighbor list info ...
  update every 1 steps, delay 5 steps, check yes
  max neighbors/atom: 2000, page size: 100000
  master list distance cutoff = 2.8
  ghost atom cutoff = 2.8
  binsize = 1.4, bins = 26 26 1
  1 neighbor lists, perpetual/occasional/extra = 1 0 0
  (1) pair lj/cut, perpetual
      attributes: half, newton on
      pair build: half/bin/newton
      stencil: half/bin/2d/newton
      bin: standard
Per MPI rank memory allocation (min/avg/max) = 4.001 | 4.001 | 4.001 Mbytes
Step Temp E_pair E_mol TotEng Press 
       0         0.45   -1.7061976  0.094144249   -1.1624283    3.8015113 
    1000         0.45   -1.9656272  0.065737702   -1.4502645    1.8869504 
    2000   0.45643021   -1.9804979   0.06069692   -1.4637511    1.7840488 
    3000         0.45   -2.0069774  0.063273903   -1.4940785    1.5344808 
    4000   0.46877185   -2.0118089  0.063511162   -1.4799165    1.5112039 
    5000   0.45037477   -2.0202928  0.064675812   -1.5056176    1.5614253 
    6000   0.46516417    -2.041891    0.0633751   -1.5137393     1.302917 
    7000   0.43402321   -2.0309525  0.080389027   -1.5169019    1.2526669 
    8000   0.44698877   -2.0438825  0.056384491   -1.5408818    1.2320847 
    9000   0.46716896   -2.0490995  0.055185945   -1.5271339    1.1323067 
   10000   0.45585592   -2.0534599  0.059172717   -1.5388112    1.2103699 
   11000   0.44678446   -2.0702287  0.064814108   -1.5590025   0.93753889 
   12000   0.46238947   -2.0533635  0.061899722   -1.5294596     1.039375 
   13000   0.44497125   -2.0582622  0.055753243   -1.5579085     1.105247 
   14000   0.46197842   -2.0700459  0.061177996   -1.5472745    1.0365751 
   15000   0.45391975   -2.0698433  0.071128012   -1.5451738   0.94060338 
   16000   0.44617128   -2.0921643  0.064669811   -1.5816951   0.96199988 
   17000   0.45205591   -2.0892946  0.073532323   -1.5640831   0.72042835 
   18000   0.44742647   -2.0667234  0.066469731      -1.5532    1.0881956 
   19000   0.45154441   -2.0603669    0.0589846   -1.5502142    1.1682254 
   20000   0.44930673   -2.0699762     0.060197   -1.5608469   0.93709988 
   21000   0.44952144   -2.0787365  0.054909176   -1.5746805   0.91906714 
   22000   0.45094085   -2.1027668   0.05970659   -1.5924952   0.76875966 
   23000   0.45653288   -2.0752194  0.057879405   -1.5611875   0.90288603 
   24000   0.45659718   -2.1051589  0.061071012   -1.5878712   0.67941553 
   25000   0.44943892   -2.0785434  0.063137757   -1.5663412   0.91848225 
   26000   0.46662896   -2.0912992  0.060997699   -1.5640614   0.84321344 
   27000   0.45990587   -2.0872861  0.062249833   -1.5655136    0.7970408 
   28000   0.44904041   -2.0887241  0.067592763   -1.5724651   0.83063368 
   29000   0.44840621    -2.082931  0.063504343   -1.5713941   0.85259731 
   30000         0.45   -2.1005553  0.061020694   -1.5899096   0.85076517 
   31000   0.43293607   -2.0834216  0.062211326    -1.588635   0.87798767 
   32000         0.45   -2.1041864  0.056583773   -1.5979776   0.74721991 
   33000   0.45483731   -2.0843819  0.064702707   -1.5652209   0.72878185 
   34000         0.45   -2.0946388  0.056465271   -1.5885485   0.81958535 
   35000   0.45561477   -2.0962413  0.058642378   -1.5823639   0.86190757 
   36000   0.46372156   -2.0819766  0.061679429    -1.556962   0.92734228 
   37000   0.46602014   -2.0978422   0.05861007   -1.5736003   0.87514767 
   38000   0.45496066   -2.0993783  0.054914099   -1.5898827    0.7885952 
   39000   0.45215206   -2.0997742  0.061140603   -1.5868584   0.83434324 
   40000   0.43961538    -2.095479  0.061779306   -1.5944507   0.79151814 
   41000   0.45065436   -2.0992641  0.058334617   -1.5906507   0.84329542 
   42000   0.44063989   -2.0911919  0.058682846   -1.5922364   0.83653642 
   43000   0.45090762   -2.1109187  0.056792395   -1.6035945   0.66699616 
   44000   0.43620597   -2.1163977  0.068503171   -1.6120521   0.72985642 
   45000    0.4536995   -2.1169236   0.06222035   -1.6013818    0.6724514 
   46000   0.44961963   -2.0949168  0.056381135   -1.5892907   0.85934269 
   47000   0.45429621   -2.0982372   0.05977093   -1.5845486   0.78798948 
   48000   0.45889422   -2.1042317  0.062692038   -1.5830278   0.80652424 
   49000   0.44973607   -2.1107622   0.05251269   -1.6088882   0.80305097 
   50000   0.45422606   -2.1083846   0.05061301    -1.603924   0.81750837 
   51000   0.45545299   -2.1154627  0.053581638   -1.6068076   0.77970255 
   52000   0.46382715   -2.1001689  0.053408569   -1.5833197   0.77034515 
   53000   0.44707619   -2.1134818  0.055878089   -1.6109001   0.63749083 
   54000   0.45951971   -2.1155704   0.05958078   -1.5968529   0.81426779 
   55000   0.45588645   -2.1128869  0.060361673   -1.5970187   0.70242718 
   56000   0.44752186   -2.0917439  0.058352116   -1.5862429   0.89773952 
   57000   0.44921415    -2.115356   0.05318821    -1.613328   0.81456406 
   58000   0.44046295   -2.1119294  0.063384551   -1.6084489   0.59683679 
   59000    0.4349702   -2.0981796  0.059156694   -1.6044152   0.71438644 
   60000    0.4568814   -2.1060323   0.06038074   -1.5891509   0.70442841 
Loop time of 2.49332 on 4 procs for 60000 steps with 1200 atoms

Performance: 10395764.892 tau/day, 24064.271 timesteps/s
97.9% CPU use with 4 MPI tasks x 1 OpenMP threads

MPI task timing breakdown:
Section |  min time  |  avg time  |  max time  |%varavg| %total
---------------------------------------------------------------
Pair    | 1.1638     | 1.2432     | 1.3093     |   4.7 | 49.86
Bond    | 0.055561   | 0.063918   | 0.072427   |   2.4 |  2.56
Neigh   | 0.45107    | 0.45366    | 0.45616    |   0.3 | 18.20
Comm    | 0.40982    | 0.48044    | 0.56933    |   8.4 | 19.27
Output  | 0.00072122 | 0.0013784  | 0.0033441  |   3.1 |  0.06
Modify  | 0.14899    | 0.15204    | 0.15837    |   1.0 |  6.10
Other   |            | 0.09871    |            |       |  3.96

Nlocal:    300 ave 307 max 288 min
Histogram: 1 0 0 0 0 0 0 2 0 1
Nghost:    216 ave 222 max 212 min
Histogram: 1 1 0 0 0 1 0 0 0 1
Neighs:    2391.75 ave 2543 max 2194 min
Histogram: 1 0 0 0 0 0 2 0 0 1

Total # of neighbors = 9567
Ave neighs/atom = 7.9725
Ave special neighs/atom = 0.5
Neighbor list builds = 4889
Dangerous builds = 0
Total wall time: 0:00:02
